Title
1.0
   8.5490480000000009    0.0000000000000000    0.0000000000000000
   0.0000000000000000    8.5490480000000009    0.0000000000000000
   0.0000000000000000    0.0000000000000000   20.0000000000000000
C N Fe
22 2 1
direct
   0.9097607241476755    0.2076016421758324    0.0954242895629173 C
   0.9078983353080399    0.5021984726416222    0.0952957546759260 C
   0.9108025218145841    0.7977900625619720    0.0954400979395851 C
   0.1970829314635381    0.0840070272397413    0.0954494215076582 C
   0.0752725707366042    0.2057881241746922    0.0954161843435209 C
   0.1988647723537327    0.9185121375991148    0.0954872222816457 C
   0.1588336772137706    0.6467985993719921    0.0953659724035260 C
   0.0781267184979661    0.5013905880917505    0.0953122194887848 C
   0.1588956321302694    0.3536181262985573    0.0952948035820758 C
   0.0762945960687325    0.7960078746172474    0.0954644681500759 C
   0.4926182596197783    0.0868917268367835    0.0953375298179469 C
   0.3448762210134897    0.1676764845767124    0.0953275498908453 C
   0.4933953761761722    0.9166692070759443    0.0953480135941429 C
   0.3480349696237742    0.8359145603670226    0.0954031079566734 C
   0.7872285925163257    0.0850684639107323    0.0954432479335150 C
   0.6379968418313626    0.1676483407277081    0.0953466527385788 C
   0.7890100734275174    0.9195756897626044    0.0954448035497348 C
   0.8271388691064214    0.6499752859811629    0.0952916536341684 C
   0.8271476805796395    0.3568070205170966    0.0953327815911155 C
   0.6411642551461622    0.8359143046081626    0.0953114911705317 C
   0.3261571873528596    0.6685953085283133    0.0953315885211321 C
   0.6598104773309481    0.3349566713040372    0.0952894391755146 C
   0.3214476402927046    0.3301933622931868    0.0951818749618759 N
   0.6646033547892967    0.6734004672698231    0.0951725344773767 N
   0.4929497214586275    0.5017904514682007    0.0951922970511101 Fe
