Title
1.0
   8.5490480000000009    0.0000000000000000    0.0000000000000000
   0.0000000000000000    8.5490480000000009    0.0000000000000000
   0.0000000000000000    0.0000000000000000   20.0000000000000000
C N Rh
17 7 1
direct
   0.9075000947263631    0.2056930546783287    0.0974473971490075 C
   0.9107250728025477    0.8009516541558330    0.0975442568999507 C
   0.1967821191375678    0.0833770519202579    0.0976073169493217 C
   0.0766222674597381    0.2004643280485292    0.0975396189388926 C
   0.1589248388362376    0.6508322279056213    0.0978187516121278 C
   0.0784602751507933    0.5000068473602860    0.0977740010847006 C
   0.1582113935842027    0.3504958682339356    0.0977987575093868 C
   0.0793796062010627    0.7988135962145189    0.0976138085542445 C
   0.3443010419141702    0.1670819629661226    0.0978608187756936 C
   0.4931427774452753    0.9175028956111606    0.0977692306444787 C
   0.3442422998504577    0.8357024425542378    0.0978000566800482 C
   0.7877059302783779    0.0871309773307957    0.0974621328526879 C
   0.6405027164465318    0.1698657552743883    0.0977380355929246 C
   0.7902431020540550    0.9188049229251630    0.0975114274191976 C
   0.8274128333004324    0.6510744415596242    0.0977365321135446 C
   0.8257736584808401    0.3536553680455050    0.0976852702311758 C
   0.6422379140174744    0.8365813168125299    0.0977553367528051 C
   0.4933288702462277    0.0897037127217126    0.0978506689233550 N
   0.9058924899329425    0.5019162609212398    0.0977537679977745 N
   0.3220487324799935    0.3275030332745268    0.0980553088184574 N
   0.3218909764288663    0.6755842046685256    0.0979976170037947 N
   0.6630624044474592    0.3320547400238709    0.0979404407916433 N
   0.6669753808125001    0.6723821940042547    0.0979480587450103 N
   0.1968436513523171    0.9147878375872400    0.0976324610755311 N
   0.4932015526135581    0.5028233052017911    0.0980639268842252 Rh
