Title
1.0
   4.9440799999999996    0.0000000000000000    0.0000000000000000
   0.0000000000000000    8.5647549999999999    0.0000000000000000
   0.0000000000000000    0.0000000000000000   20.0000000000000000
C N Ag
12 2 1
direct
   0.0010346782897443    0.2921282706839876    0.1030183726997155 C
   0.2519764359914450    0.0407008421612686    0.1012843761150361 C
   0.0012342127704508    0.9584402071969983    0.1063302276834200 C
   0.7506205388574775    0.2068199726509840    0.1002024554293043 C
   0.5003215368027351    0.2901555072351236    0.0962564109185728 C
   0.7523433733305813    0.0415796458992723    0.1015321743801073 C
   0.7474466055220421    0.7161284052539539    0.1004217478051975 C
   0.7446502777556253    0.5377427310751477    0.0987611357740832 C
   0.5051004117767736    0.9574471260208427    0.0968568743078376 C
   0.5068135848335802    0.4521922575695457    0.0906885111995582 C
  -0.0117578850497980    0.4547151017518859    0.1072878374860289 C
  -0.0160125083844407    0.7945600184400481    0.1142457195449472 C
   0.5147850216290663    0.7986609252348675    0.0882554273383080 N
   0.2517998326944745    0.2064566818312671    0.1002242017109023 N
   0.2496438831802424    0.6239533069948108    0.1026145276069847 Ag
