Title
1.0
   4.9440799999999996    0.0000000000000000    0.0000000000000000
   0.0000000000000000    8.5647549999999999    0.0000000000000000
   0.0000000000000000    0.0000000000000000   20.0000000000000000
C N Re
12 2 1
direct
   0.2500000000000000    0.2068589941804777    0.0971308012401637 C
   0.0007450344574299    0.2918898191968976    0.0974459580297306 C
   0.2500000000000000    0.0370882309788088    0.0960227987838293 C
  -0.0021079013323491    0.9550703397169358    0.0955562737415624 C
   0.7500000000000000    0.2086357341380470    0.0937854655011228 C
   0.4992549655425699    0.2918898191968976    0.0974459580297306 C
   0.7500000000000000    0.0406091910426089    0.0929405702389980 C
   0.7500000000000000    0.7160385311691366    0.0979298757264928 C
   0.7500000000000000    0.5444382900513133    0.0981752842262363 C
   0.5021079013323494    0.9550703397169358    0.0955562737415624 C
   0.5053498227833825    0.4592655142446176    0.1052939796415667 C
  -0.0053498227833825    0.4592655142446176    0.1052939796415667 C
  -0.0110399132254735    0.7937227136317597    0.0993125384764285 N
   0.5110399132254735    0.7937227136317597    0.0993125384764285 N
   0.2500000000000000    0.6181152548591882    0.1367777045045838 Re
