Title
1.0
   8.5490480000000009    0.0000000000000000    0.0000000000000000
   0.0000000000000000    8.5490480000000009    0.0000000000000000
   0.0000000000000000    0.0000000000000000   20.0000000000000000
C N Re
20 4 1
direct
   0.9094074589551769    0.2063668088759142    0.0956730955978102 C
   0.9114539586209228    0.8012546561374094    0.0965945206566829 C
   0.1986991428449530    0.0827736114522728    0.0966701119037769 C
   0.0754646055878690    0.2030348892879991    0.0966186420325474 C
   0.1553056088745777    0.6509913660151193    0.0973214970112689 C
   0.0744950508756061    0.5018344050336633    0.0978621882066179 C
   0.1544415811347799    0.3541216294005559    0.0983522949360909 C
   0.0787928689962288    0.7999705076975625    0.0962586079409894 C
   0.3465244586941627    0.1622553929285259    0.0981591298323803 C
   0.4938292641240385    0.9167648316197055    0.0978691120833587 C
   0.3452207117003991    0.8372959927337370    0.0973451110189076 C
   0.7874579098511978    0.0854314111200968    0.0958948974845453 C
   0.6392908869575447    0.1647022926684333    0.0970072229323519 C
   0.7903080712531890    0.9191218430333696    0.0966599658124818 C
   0.8301629486505444    0.6524181570924873    0.0979305917021927 C
   0.8273629941089891    0.3559708147460486    0.0966041134374684 C
   0.6429265302675100    0.8372599608857828    0.0982139104467330 C
   0.3242150871649545    0.3304357039564057    0.1010023198249034 C
   0.3220788888388932    0.6740229879038148    0.0986963874004936 C
   0.6614781216202946    0.3331421661357823    0.0988495384221935 C
   0.4949988778988140    0.0837072127433389    0.0977110901090992 N
   0.9063930124428664    0.5034594785157883    0.0975100361371396 N
   0.6692911608554388    0.6742513370672519    0.0999739803060876 N
   0.1961797072836013    0.9173521825611034    0.0961125337960242 N
   0.4896330923974406    0.4968503603878442    0.1078141009678372 Re
