Title
1.0
   9.8694509999999998    0.0000000000000000    0.0000000000000000
   0.0000000000000000    8.5490480000000009    0.0000000000000000
   0.0000000000000000    0.0000000000000000   20.0000000000000000
C N Au
29 2 1
direct
   0.0563637149038060    0.0903434056588267    0.0864219578591946 C
   0.9311012891636038    0.1734066803414310    0.0891811051015794 C
   0.0569283652431855    0.9231542393034521    0.0853621690707146 C
   0.9303246165031578    0.3405371874560326    0.0936086281109701 C
   0.0560256397303956    0.5895199728618388    0.0893725465631051 C
   0.9314914984553494    0.6730247978256337    0.0917115236323574 C
   0.0568292023583433    0.4232643754471604    0.0913018130802877 C
   0.9313973343908400    0.8400804914855200    0.0880704497675779 C
   0.3057689005750605    0.0879705711988004    0.0869880677431687 C
   0.1822181307815414    0.1739536494533913    0.0877876615876221 C
   0.3074528275984876    0.9225079897260948    0.0863075039714544 C
   0.1822647160111071    0.3401076354679240    0.0907712528943923 C
   0.3076938817388809    0.5886207934187375    0.0920528749583564 C
   0.1817210537320634    0.6713648779456725    0.0872284160665808 C
   0.1825344921830249    0.8378824683195869    0.0854467860237202 C
   0.5556246710561550    0.0874567287942655    0.0930829294708193 C
   0.4303391270228892    0.1701859958485976    0.0910960260920567 C
   0.4304687719853764    0.3365308165693853    0.0990026222915370 C
   0.4320392989096169    0.8376137295823334    0.0918107843847676 C
   0.8068254475827842    0.0899429387220107    0.0889162583736787 C
   0.6804533289760961    0.1707963270660980    0.0941332353945421 C
   0.8063132899697085    0.9245798976381925    0.0888048420683224 C
   0.6788559767311058    0.3365248666220015    0.1035373548108478 C
   0.8064468502618071    0.5915919807579263    0.1024856956665951 C
   0.8052352107689228    0.4231488360743508    0.1014624825060160 C
   0.6818440877075881    0.8413326442822761    0.0979949446588159 C
   0.4287373622328577    0.6741685520809604    0.0976835302083064 C
   0.5519275458881818    0.4099181515315850    0.1140051827892965 C
   0.6886035350935581    0.6834044330294484    0.1134078528371234 C
   0.5558551793797324    0.9224066838237179    0.0942735912922850 N
   0.3060318230591455    0.4223938771463642    0.0941570575264634 N
   0.5539218300056327    0.5925104045203862    0.1882078531974615 Au
