Title
1.0
   8.5490480000000009    0.0000000000000000    0.0000000000000000
   0.0000000000000000    8.5490480000000009    0.0000000000000000
   0.0000000000000000    0.0000000000000000   20.0000000000000000
C Mo
24 1
direct
   0.9107737397361165    0.2068553964741403    0.0977603328249853 C
   0.9088704097829993    0.5018017766989692    0.0968414392076916 C
   0.9108180186839212    0.7967044645519870    0.0977356120677036 C
   0.1981686197353246    0.0840515901632527    0.0982801596278764 C
   0.0753049676148414    0.2068005641652845    0.0979209084256586 C
   0.1981674518751385    0.9195090524466694    0.0982879947449387 C
   0.1584140927562384    0.6470359082245059    0.0968339393382654 C
   0.0771244367972680    0.5018012347284847    0.0970609588648506 C
   0.1583514169967928    0.3565571333352037    0.0968471227640584 C
   0.0753237893213070    0.7967557668823171    0.0978969258418039 C
   0.4930275573101448    0.0859336312165549    0.0979956761908111 C
   0.3478322454150368    0.1672201282283052    0.0974806442053628 C
   0.4930160251706039    0.9176666913766406    0.0980047059000226 C
   0.3478408781089484    0.8363507170009166    0.0974919314692268 C
   0.7880131005011742    0.0840569846053087    0.0981105870505773 C
   0.6382507917749147    0.1671680711183324    0.0973000338612144 C
   0.7880294320873649    0.9195242085128954    0.0981076242912753 C
   0.8276075262479723    0.6470288166988833    0.0965109065241605 C
   0.8275935119797856    0.3565735186215618    0.0965471205493242 C
   0.6382667496226461    0.8364307039725424    0.0973044247723739 C
   0.3257267216470967    0.3345271748794542    0.0941355222849191 C
   0.3257987777563774    0.6690314909108316    0.0941259086652776 C
   0.6602041431397637    0.3344979018117142    0.0938391247169273 C
   0.6602118222771741    0.6691329634534564    0.0938141453483400 C
   0.4926757736610426    0.5017741099218000    0.0574712504623324 Mo
