Title
1.0
   9.8694509999999998    0.0000000000000000    0.0000000000000000
   0.0000000000000000    8.5490480000000009    0.0000000000000000
   0.0000000000000000    0.0000000000000000   20.0000000000000000
C N Zn
28 3 1
direct
   0.0562574672541230    0.0921237791175013    0.0810365468093593 C
   0.9304320882534772    0.1749300970941680    0.0855571575219704 C
   0.0562165170412540    0.9234804502425530    0.0774192191538844 C
   0.9299792598693905    0.3407054300587586    0.0926708292754039 C
   0.0562094285589002    0.5896335121729733    0.0836711965716472 C
   0.9317275262613441    0.6710885665301458    0.0837302245524726 C
   0.0562377616341415    0.4232691528553753    0.0903570127963615 C
   0.9308333593291975    0.8390410047994907    0.0797639004178767 C
   0.3056557643572789    0.0891000979893237    0.0838011862100549 C
   0.1821182474317763    0.1749120928534516    0.0851125398021019 C
   0.3066045687272954    0.9241143744073252    0.0827557324411329 C
   0.1825039659106380    0.3406435225532161    0.0922133700695953 C
   0.3033831432864874    0.5918243196919404    0.1006620543954521 C
   0.1807391297746216    0.6710615892589937    0.0832496384510638 C
   0.1816623193686762    0.8390517596880294    0.0792920131332049 C
   0.5562564776180484    0.0858944702004657    0.0941409129099312 C
   0.4304944238082453    0.1694880456902664    0.0921104395425515 C
   0.4325309001944440    0.3327787956981660    0.1060725309935496 C
   0.4273752951341764    0.8402551895327064    0.0993557068485249 C
   0.8069199351479375    0.0890693219185530    0.0844739228802667 C
   0.6820507296229984    0.1695121176512258    0.0925482792265335 C
   0.8059607878411341    0.9240888053303600    0.0834145941814349 C
   0.6799092926126864    0.3328066614540469    0.1065186793969755 C
   0.8091946127483477    0.5919345452168322    0.1014479694341336 C
   0.6851806160393602    0.8402599704731896    0.0999775539302688 C
   0.4132835829568960    0.6848978760592567    0.1206637841353375 C
   0.5560652730660133    0.3991090360138182    0.1263599992819877 C
   0.6992971388442036    0.6850081973729418    0.1215214665029961 C
   0.5562667849114917    0.9204470503960657    0.0997158605481771 N
   0.3066275508858915    0.4227870712336865    0.1021325468038915 N
   0.8059245189395684    0.4228427506645712    0.1028616807978939 N
   0.5557405325699606    0.5940863457806045    0.1710664509839804 Zn
