Title
1.0
   4.9440799999999996    0.0000000000000000    0.0000000000000000
   0.0000000000000000    8.5647549999999999    0.0000000000000000
   0.0000000000000000    0.0000000000000000   20.0000000000000000
C N Rh
12 2 1
direct
  -0.0035403450567390    0.2924694001201555    0.0976118496673979 C
   0.2571583161948605    0.0406435103004815    0.0979470334510686 C
   0.0106150973070146    0.9561275213106134    0.0935779415282290 C
   0.7476401269320619    0.2078678632454768    0.0931337478078465 C
   0.4931721797000977    0.2930574644493847    0.0948274708666422 C
   0.7567033464722641    0.0402054167503482    0.0934032989054073 C
   0.7507110385108857    0.7137832357179877    0.1009783140021297 C
   0.7399872061462215    0.5384815729884782    0.0995700921874984 C
   0.5119218115827838    0.9566188303275663    0.1015995524253528 C
   0.4930269881071718    0.4604500315324236    0.0964932227395856 C
  -0.0134712461949038    0.4555134046474744    0.1073835237893031 C
  -0.0016672263511769    0.7883590590548654    0.0930567295918000 C
   0.5197204742900944    0.7977673100428676    0.1137573629548645 N
   0.2501654213811889    0.2066657471256274    0.0968312205476364 N
   0.2378568109781746    0.6236706323862510    0.1278086395352413 Rh
