Title
1.0
   4.9440799999999996    0.0000000000000000    0.0000000000000000
   0.0000000000000000    8.5647549999999999    0.0000000000000000
   0.0000000000000000    0.0000000000000000   20.0000000000000000
C N V
12 3 1
direct
   0.2500000000000000    0.2116971572582642    0.0920546818392976 C
  -0.0046352903350051    0.2910712040966681    0.0946296422573515 C
   0.2500000000000000    0.0434233578762863    0.0887409463668388 C
   0.0022100788117870    0.7955072951974879    0.0997507254753532 C
  -0.0003298543652433    0.9595963044817958    0.0886348957323681 C
   0.7500000000000000    0.2068658003791140    0.0870733114955418 C
   0.5046352903350051    0.2910712040966681    0.0946296422573515 C
   0.7500000000000000    0.0415621021117485    0.0843153576764293 C
   0.7500000000000000    0.7042989714877604    0.1037544527615206 C
   0.4977899211882130    0.7955072951974879    0.0997507254753532 C
   0.7500000000000000    0.5338335848234949    0.1060932412934493 C
   0.5003298543652436    0.9595963044817958    0.0886348957323681 C
   0.5150649790954344    0.4489191744135421    0.1083373305956973 N
  -0.0150649790954343    0.4489191744135421    0.1083373305956973 N
   0.2500000000000000    0.7268527864572965    0.1116074104171077 N
   0.2500000000000000    0.5412782832270485    0.1661674100282825 V
