Title
1.0
   8.5490480000000009    0.0000000000000000    0.0000000000000000
   0.0000000000000000    8.5490480000000009    0.0000000000000000
   0.0000000000000000    0.0000000000000000   20.0000000000000000
C N Ni
21 3 1
direct
   0.9098179417661684    0.2076017504175857    0.0975882682329943 C
   0.9119254092026040    0.7984118290006462    0.0976673063117693 C
   0.1998629495670289    0.0823028020537032    0.0977612270615685 C
   0.0753135216129698    0.2038329206844628    0.0976643565325012 C
   0.1596797940895725    0.6484247536352761    0.0978562106680717 C
   0.0766672842640846    0.5007018603980897    0.0977639045679210 C
   0.1588328563259453    0.3550157412435555    0.0977674669946493 C
   0.0782480127068469    0.7981725972594015    0.0977433024669359 C
   0.3472792777631494    0.1665841355930793    0.0978245184304990 C
   0.4930842715392129    0.9189286853905404    0.0977400786571223 C
   0.3465247904960865    0.8350124195090991    0.0978587794371128 C
   0.7858276321920017    0.0845405404450301    0.0975914647703354 C
   0.6364924754354666    0.1691484597242872    0.0976705287372171 C
   0.7876998959747942    0.9198875156833604    0.0976079342655766 C
   0.8277737972677296    0.6478800864362856    0.0977274247363048 C
   0.8256982456889237    0.3575151634677792    0.0976394559297523 C
   0.6378258106878748    0.8356395864670213    0.0976889640433594 C
   0.3280741541101888    0.3349881345042541    0.0978695472125139 C
   0.3270146874187671    0.6688519493379205    0.0979300759729805 C
   0.6568843601226607    0.3387058306138846    0.0977015838041896 C
   0.6596708517738388    0.6660559061004588    0.0977681261597618 C
   0.4942465786843201    0.0865241177087996    0.0977977704350570 N
   0.9087934565552854    0.5017671024548787    0.0977410986895463 N
   0.1976989327603113    0.9172887377414634    0.0978098849561525 N
   0.4944750119941540    0.5010073741291434    0.0979257209260875 Ni
