Title
1.0
   4.9440799999999996    0.0000000000000000    0.0000000000000000
   0.0000000000000000    8.5647549999999999    0.0000000000000000
   0.0000000000000000    0.0000000000000000   20.0000000000000000
C N Hf
14 1 1
direct
  -0.0012481722201105    0.2891683686083062    0.0908826758784446 C
   0.2500000000000000    0.0427367618152277    0.0844018637684695 C
  -0.0004558075840203    0.7970226136883183    0.0996031234157074 C
  -0.0008825739593686    0.9605052455230324    0.0849833058401899 C
   0.7500000000000000    0.2062177684235331    0.0800686401191910 C
   0.5012481722201104    0.2891683686083062    0.0908826758784446 C
   0.7500000000000000    0.0425021555418111    0.0792961372492240 C
   0.7500000000000000    0.7082776427567290    0.1046394423222751 C
   0.5004558075840203    0.7970226136883183    0.0996031234157074 C
   0.7500000000000000    0.5380691566804331    0.1080383802459559 C
   0.5008825739593686    0.9605052455230324    0.0849833058401899 C
   0.5053975531144629    0.4457063767532757    0.1109203846935423 C
  -0.0053975531144632    0.4457063767532757    0.1109203846935423 C
   0.2500000000000000    0.7264690694282392    0.1139426898697521 C
   0.2500000000000000    0.2065918871486383    0.0879796525956022 N
   0.2500000000000000    0.5443303490595214    0.1813662141737713 Hf
