Title
1.0
   9.8694509999999998    0.0000000000000000    0.0000000000000000
   0.0000000000000000    8.5490480000000009    0.0000000000000000
   0.0000000000000000    0.0000000000000000   20.0000000000000000
C Rh
31 1
direct
   0.0562326006164672    0.0899276953525428    0.0824401865216185 C
   0.9311661215815964    0.1729308934080322    0.0846803490064030 C
   0.0562260236652038    0.9232385863045632    0.0825180146901564 C
   0.9307304757078491    0.3399883740273121    0.0880405570873978 C
   0.0562287865942337    0.5891422097611125    0.0855916245493363 C
   0.9320953731142507    0.6730800293683844    0.0878818325212521 C
   0.0562182770259576    0.4230669383125431    0.0864175598169672 C
   0.9315911782149088    0.8397059790891515    0.0854714655939699 C
   0.3055707124634529    0.0894838294165209    0.0868543945131887 C
   0.1812994601879998    0.1729458181922367    0.0846771986433170 C
   0.3052217319746202    0.9232528179865777    0.0885408439844659 C
   0.1817183493338445    0.3400092934561078    0.0880275910296897 C
   0.3033288450906791    0.5900420609784607    0.0992557244984128 C
   0.1803758042619481    0.6730725412229092    0.0878381848532023 C
   0.3051621179762014    0.4219535202859678    0.0973462020077345 C
   0.1808614718725517    0.8397035752648978    0.0854381052248481 C
   0.5562351379348840    0.0876319135274335    0.0937954563104998 C
   0.4306724133491771    0.1709234819847645    0.0925105032382857 C
   0.5562235747679971    0.9227752427407482    0.0989284678475350 C
   0.4302940063088864    0.3358771814239225    0.1013011154535953 C
   0.4191895642977412    0.6801363723730048    0.1138590831138003 C
   0.5562293339808565    0.4069665657402855    0.1155066236110502 C
   0.4289098559825141    0.8411791676274814    0.1000734689790410 C
   0.8068927127205047    0.0894640940752403    0.0868701726578956 C
   0.6818119633437234    0.1709149960493857    0.0925280275182549 C
   0.8072366804384358    0.9232486102096757    0.0885862701787596 C
   0.6821750488147339    0.3358654895926602    0.1013190073412179 C
   0.8091915273797959    0.5900293770336326    0.0993320060505546 C
   0.6933806334165934    0.6801482990425026    0.1139197309372918 C
   0.8073044562830465    0.4219330024844187    0.0973868115097640 C
   0.6835499334478927    0.8411650866399003    0.1001140684912229 C
   0.5563148278514587    0.5904429570276325    0.1686243522193056 Rh
