Title
1.0
   8.5490480000000009    0.0000000000000000    0.0000000000000000
   0.0000000000000000    8.5490480000000009    0.0000000000000000
   0.0000000000000000    0.0000000000000000   20.0000000000000000
C N V
20 4 1
direct
   0.9093969383348329    0.2056318733969462    0.0954603904496790 C
   0.9070556380469409    0.5018111490428980    0.0953123526845535 C
   0.9094090521598348    0.7979618195706693    0.0954711532929837 C
   0.1968566566970935    0.0853757115112901    0.0954880430541192 C
   0.0766261246879967    0.2056008633943906    0.0954736401332826 C
   0.1968759793309054    0.9181601098902925    0.0954946789843287 C
   0.1585345303904075    0.6502511171846033    0.0953439879960610 C
   0.0790094033075743    0.5017852449909926    0.0953299313919088 C
   0.1585114458668511    0.3532998100139914    0.0953301195945153 C
   0.0766477015584327    0.7979401545524212    0.0954813086269639 C
   0.4929880598500178    0.0877720175719019    0.0953538595943145 C
   0.3445515586991372    0.1673027737561531    0.0953530112490632 C
   0.4929922949959803    0.9158364751713606    0.0953616529316701 C
   0.3445788027845629    0.8362650452232118    0.0953609944245850 C
   0.7891563997547620    0.0854186095398017    0.0954755173556311 C
   0.6414363228944410    0.1673320641284071    0.0953258420755531 C
   0.7891706953800419    0.9181944418912755    0.0954794558271659 C
   0.8275200242631980    0.6502751828806892    0.0953205944777666 C
   0.8275193283963795    0.3533426073100897    0.0952981821119751 C
   0.6414429592791391    0.8362901813134939    0.0953376237836996 C
   0.3214302689502919    0.3301595293059055    0.0952001872848217 N
   0.3214600412653283    0.6733923315612201    0.0952144486004857 N
   0.6646067952030446    0.3301890836770977    0.0951740995742303 N
   0.6646074097198611    0.6734168384976341    0.0951892017565843 N
   0.4930275681829374    0.5017849646232762    0.0950747227440359 V
