Title
1.0
   4.9440799999999996    0.0000000000000000    0.0000000000000000
   0.0000000000000000    8.5647549999999999    0.0000000000000000
   0.0000000000000000    0.0000000000000000   20.0000000000000000
C N Mn
14 1 1
direct
   0.0001210175507752    0.2887680509781349    0.0951422968957225 C
   0.2500000000000000    0.0429120586040668    0.0866377655782216 C
  -0.0007012334114160    0.7948424547444013    0.0970957468120920 C
  -0.0007252544195943    0.9606000684932551    0.0865880302026400 C
   0.7500000000000000    0.2068065188821943    0.0865539074123331 C
   0.4998789824492247    0.2887680509781349    0.0951422968957225 C
   0.7500000000000000    0.0422554875218261    0.0832214331935056 C
   0.7500000000000000    0.7081289472980780    0.1019761026091709 C
   0.5007012334114160    0.7948424547444013    0.0970957468120920 C
   0.7500000000000000    0.5393489263671017    0.1095002320218481 C
   0.5007252544195944    0.9606000684932551    0.0865880302026400 C
   0.5063372037024049    0.4480067679050005    0.1131313828801310 C
  -0.0063372037024048    0.4480067679050005    0.1131313828801310 C
   0.2500000000000000    0.7217243767676856    0.1083111516502247 C
   0.2500000000000000    0.2069862547950652    0.0906793785122226 N
   0.2500000000000000    0.5474027455224001    0.1617171154413117 Mn
