Title
1.0
   4.9440799999999996    0.0000000000000000    0.0000000000000000
   0.0000000000000000    8.5647549999999999    0.0000000000000000
   0.0000000000000000    0.0000000000000000   20.0000000000000000
C N Os
12 2 1
direct
   0.2456537390152356    0.2095855604758509    0.0971655823699000 C
  -0.0090895279977550    0.2947079155181175    0.0998213221115129 C
   0.2544387458778407    0.0399329144780124    0.0971841799878087 C
   0.0085939862480738    0.9551728455801360    0.0931363199665901 C
   0.7444651910938100    0.2095613505531967    0.0934974793676932 C
   0.4914496480684724    0.2943965066344234    0.0931754190209368 C
   0.7555616427988365    0.0399561577990330    0.0935136740824718 C
   0.7581114342962179    0.7126663494896351    0.1024575550278383 C
   0.7419183367805415    0.5368847969528396    0.1024019370687556 C
   0.5091280873011204    0.9548033524960213    0.0999201903130293 C
   0.4991207430612132    0.4632121506907295    0.0919180234497008 C
   0.0007893850131729    0.7864116476063816    0.0918386822823333 C
  -0.0203927018335626    0.4554323460667272    0.1122808044810620 N
   0.5204139786792066    0.7941148261941616    0.1124617646932417 N
   0.2498373115975762    0.6248422794647366    0.1272070657771288 Os
