Title
1.0
   8.5490480000000009    0.0000000000000000    0.0000000000000000
   0.0000000000000000    8.5490480000000009    0.0000000000000000
   0.0000000000000000    0.0000000000000000   20.0000000000000000
C N Cr
21 3 1
direct
   0.9089772147805735    0.2039650695249518    0.0976217774728024 C
   0.9037863139079044    0.5026991100905502    0.0977740401744897 C
   0.9109289124071331    0.8024737773023229    0.0975963200412661 C
   0.1981743428264526    0.0822829167381582    0.0978640985788220 C
   0.0747183497515130    0.2034168204085847    0.0977278140952373 C
   0.1565291058731841    0.6494810566596438    0.0976803200175230 C
   0.0734745677398625    0.5015198423067873    0.0976922969227620 C
   0.1553600113874671    0.3541923545376076    0.0977151876763849 C
   0.0779777989171843    0.7982788506064249    0.0977149370371718 C
   0.4943339707042201    0.0866286721048598    0.0978196360315117 C
   0.3465797996006659    0.1646276341191368    0.0978647101968884 C
   0.4936910372966908    0.9169637489227910    0.0977556719212915 C
   0.3468823011822289    0.8355177204776163    0.0977875735627043 C
   0.7887491699806336    0.0859688220604895    0.0975454020671982 C
   0.6423281108793896    0.1671519726093800    0.0977701358676870 C
   0.7896015362591234    0.9192645006356507    0.0975043163944541 C
   0.8271140672164845    0.6524063452557776    0.0977531725536776 C
   0.8250024370610474    0.3537006251430930    0.0977982496780990 C
   0.6426593552897990    0.8366448196474788    0.0976673166369314 C
   0.3227127742437866    0.3331399691788946    0.0977739436914175 C
   0.3231874749462059    0.6707650885227066    0.0976895791312386 C
   0.6653104608835377    0.3296394409887944    0.0979454782857974 N
   0.6667830626671670    0.6753967237676078    0.0978594977287046 N
   0.1982341862934532    0.9179029751395862    0.0978961507549078 N
   0.4923156379042850    0.5007611432511250    0.0978873734810046 Cr
