Title
1.0
   4.9440799999999996    0.0000000000000000    0.0000000000000000
   0.0000000000000000    8.5647549999999999    0.0000000000000000
   0.0000000000000000    0.0000000000000000   20.0000000000000000
C N Ni
11 4 1
direct
  -0.0056888541194226    0.2921782089969515    0.0901554362771088 C
   0.2500000000000000    0.0446191496501361    0.0894763950092728 C
   0.0041922584847681    0.7970340455923397    0.1055799192938265 C
   0.0008469141263401    0.9608160800865889    0.0905570841205000 C
   0.7500000000000000    0.2045271257419007    0.0840026320973496 C
   0.5056888541194228    0.2921782089969515    0.0901554362771088 C
   0.7500000000000000    0.0400632199026626    0.0836550360544205 C
   0.7500000000000000    0.7051238903842121    0.1068316475294852 C
   0.4958077415152321    0.7970340455923397    0.1055799192938265 C
   0.7500000000000000    0.5319058705716116    0.1037047247520500 C
   0.4991530858736598    0.9608160800865889    0.0905570841205000 C
   0.5131531059782198    0.4474397462205360    0.1015281379480995 N
  -0.0131531059782196    0.4474397462205360    0.1015281379480995 N
   0.2500000000000000    0.7331453498283369    0.1226485578372713 N
   0.2500000000000000    0.2128786255809579    0.0872920259352337 N
   0.2500000000000000    0.5328006065473501    0.1592598255058567 Ni
