Title
1.0
   8.5490480000000009    0.0000000000000000    0.0000000000000000
   0.0000000000000000    8.5490480000000009    0.0000000000000000
   0.0000000000000000    0.0000000000000000   20.0000000000000000
C N Pt
17 7 1
direct
   0.9070355829349366    0.2063052762628691    0.0974650939475243 C
   0.9100666316103855    0.8000753883614004    0.0975356381478196 C
   0.1978318337439953    0.0838701815130809    0.0976044542035035 C
   0.0773687504615696    0.2015136356976450    0.0975448811190077 C
   0.1580533230918854    0.6505270575729345    0.0977834821634569 C
   0.0783326215320670    0.5004932746543420    0.0977632730840395 C
   0.1579357270436813    0.3506894852485696    0.0977869392795509 C
   0.0793824898414900    0.7981011264220417    0.0976077182870868 C
   0.3452218500323179    0.1664773163042411    0.0978417531243044 C
   0.4925445959317714    0.9172058702952318    0.0977965001913030 C
   0.3447707334328199    0.8363935986492292    0.0977921533165286 C
   0.7870481067951411    0.0877478260140116    0.0974610494850238 C
   0.6404403948470079    0.1694237640004600    0.0977518120196510 C
   0.7893166952351625    0.9177672563925680    0.0974908823162980 C
   0.8282716557688493    0.6501593023959058    0.0977319328262389 C
   0.8264154989416106    0.3541933749072075    0.0977181386923194 C
   0.6421111292494399    0.8364977740697146    0.0977629477012578 C
   0.4930707136988377    0.0899321290744184    0.0979004525329550 N
   0.9059495708786233    0.5022120742988195    0.0977793642957585 N
   0.3216654122391979    0.3273578566202177    0.0980439473135502 N
   0.3209809736277994    0.6761111251744477    0.0979331114920420 N
   0.6635250384981817    0.3317551181341205    0.0980036333137852 N
   0.6670649429782389    0.6727272170350673    0.0979529163166362 N
   0.1976618301198910    0.9146541861487759    0.0976570238689487 N
   0.4933458974650915    0.5025987847526796    0.0979959009613901 Pt
