Title
1.0
   9.8694509999999998    0.0000000000000000    0.0000000000000000
   0.0000000000000000    8.5490480000000009    0.0000000000000000
   0.0000000000000000    0.0000000000000000   20.0000000000000000
C N Au
28 3 1
direct
   0.0544875413139050    0.0910159258431954    0.0874104006956386 C
   0.9291714049150753    0.1717223597763182    0.0888472415859533 C
   0.0548791635043285    0.9238549384735575    0.0886259072338474 C
   0.9286148785284860    0.3395458654761468    0.0914357151802334 C
   0.0544678844384939    0.5894386156393426    0.0879137818069367 C
   0.9295113943277760    0.6717129546343240    0.0934508130491817 C
   0.0561304475210120    0.4226007613655558    0.0882393638243463 C
   0.9301640938195967    0.8380791164370627    0.0925090954946248 C
   0.3041792015120457    0.0890936621570407    0.0877468139773575 C
   0.1805950840813684    0.1735985936110750    0.0862128945357986 C
   0.1838192347915140    0.3421524971003440    0.0852876071645751 C
   0.3071088079607329    0.5952405442519737    0.0843637147135784 C
   0.1796744972258819    0.6744039010517935    0.0859039694244042 C
   0.3106771244514508    0.4261464965732601    0.0835486804871361 C
   0.1791241393963740    0.8413444170523405    0.0873521077782662 C
   0.5540519502487211    0.0830048775674940    0.0935467836037145 C
   0.4305086074423852    0.1690272620966778    0.0884681611142756 C
   0.5518015356427785    0.9181369211785819    0.1001190460328478 C
   0.4373508348673512    0.3371297088976973    0.0854941351644207 C
   0.4242960983074675    0.8353824376477283    0.0921083353333460 C
   0.8046687693566833    0.0859373610366074    0.0918005740301060 C
   0.6794541786393833    0.1671847809310952    0.0931305565739177 C
   0.8043220047054187    0.9193715947277130    0.0949864039189985 C
   0.6756722859951066    0.3338352487953070    0.0931881223766720 C
   0.8052150402706931    0.5882428442009289    0.1064172197149857 C
   0.6930730235399067    0.6783823517013784    0.1281785591594005 C
   0.8032655949585593    0.4204680606168059    0.0987035172946762 C
   0.6792606410095630    0.8359064091580977    0.1072767600331138 C
   0.4225831519062516    0.6818055742585108    0.0869162230143892 N
   0.5577697020928623    0.4123543235490628    0.0877016629272825 N
   0.3024472531967822    0.9247638693711165    0.0887053781390875 N
   0.5912934300320494    0.6093617248218749    0.2100854546169216 Au
