Title
1.0
   4.9440799999999996    0.0000000000000000    0.0000000000000000
   0.0000000000000000    8.5647549999999999    0.0000000000000000
   0.0000000000000000    0.0000000000000000   20.0000000000000000
C N Ir
11 4 1
direct
  -0.0047884654112380    0.2928200289286546    0.0913769653124368 C
   0.2500000000000000    0.0447247229687843    0.0904875603023910 C
   0.0031936186033558    0.7942196984322906    0.1013163707764988 C
   0.0010387543572730    0.9604946683484559    0.0909458383837961 C
   0.7500000000000000    0.2058454893606358    0.0873516199114735 C
   0.5047884654112380    0.2928200289286546    0.0913769653124368 C
   0.7500000000000000    0.0405051194361727    0.0861633801940699 C
   0.7500000000000000    0.7042625128925047    0.1020660260999887 C
   0.4968063813966442    0.7942196984322906    0.1013163707764988 C
   0.7500000000000000    0.5317371488930412    0.1006040380704013 C
   0.4989612456427273    0.9604946683484559    0.0909458383837961 C
   0.5100572828112324    0.4503013597270443    0.0999706713913575 N
  -0.0100572828112326    0.4503013597270443    0.0999706713913575 N
   0.2500000000000000    0.7254364008751021    0.1144975578310670 N
   0.2500000000000000    0.2126742540501781    0.0893712112104752 N
   0.2500000000000000    0.5391428406506905    0.1747509146519642 Ir
