Title
1.0
   4.9440799999999996    0.0000000000000000    0.0000000000000000
   0.0000000000000000    8.5647549999999999    0.0000000000000000
   0.0000000000000000    0.0000000000000000   20.0000000000000000
C N Ru
13 1 1
direct
   0.0024612377262051    0.2941950489918290    0.0954171054086927 C
   0.2500000000000000    0.0432274072773506    0.0972577182940443 C
   0.0020055944959056    0.9569099653662638    0.0975396426190061 C
   0.7500000000000000    0.2086390353383903    0.0935024565366001 C
   0.4975387622737948    0.2941950489918290    0.0954171054086927 C
   0.7500000000000000    0.0402097848435795    0.0947638776712783 C
   0.7500000000000000    0.7098671518595070    0.0985683505306939 C
   0.7500000000000000    0.5376643456889874    0.0973477101105426 C
   0.4979944055040944    0.9569099653662638    0.0975396426190061 C
   0.4992990836779769    0.4597005639514275    0.0996204180145101 C
   0.0007009163220232    0.4597005639514275    0.0996204180145101 C
  -0.0017698583934628    0.7888358384498029    0.1029562646692078 C
   0.5017698583934626    0.7888358384498029    0.1029562646692078 C
   0.2500000000000000    0.2078018332547394    0.0959251633560571 N
   0.2500000000000000    0.6249886082188024    0.1395478620779539 Ru
