Title
1.0
   4.9440799999999996    0.0000000000000000    0.0000000000000000
   0.0000000000000000    8.5647549999999999    0.0000000000000000
   0.0000000000000000    0.0000000000000000   20.0000000000000000
C Ru
14 1
direct
   0.2500000000000000    0.2074619766533533    0.0966707124720519 C
   0.0019727734570250    0.2949031158217830    0.0966115735077573 C
   0.2500000000000000    0.0420769494981601    0.0967324014009678 C
   0.0019472979065739    0.9546701117508951    0.0967014241901383 C
   0.7500000000000000    0.2099195739791550    0.0947529918751780 C
   0.4980272265429749    0.2949031158217830    0.0966115735077573 C
   0.7500000000000000    0.0397069188741668    0.0948045630651217 C
   0.7500000000000000    0.7093838815521790    0.0975736778739660 C
   0.7500000000000000    0.5401485031810108    0.0974920356735326 C
   0.4980527020934263    0.9546701117508951    0.0967014241901383 C
   0.5025625473068535    0.4615941816311977    0.1008611508214554 C
  -0.0025625473068530    0.4615941816311977    0.1008611508214554 C
  -0.0025689713460156    0.7879691613492744    0.1009759420879991 C
   0.5025689713460156    0.7879691613492744    0.1009759420879991 C
   0.2500000000000000    0.6247100551556771    0.1396534364244850 Ru
