Title
1.0
   4.9440799999999996    0.0000000000000000    0.0000000000000000
   0.0000000000000000    8.5647549999999999    0.0000000000000000
   0.0000000000000000    0.0000000000000000   20.0000000000000000
C N Hf
12 2 1
direct
  -0.0021324668238307    0.2935891499396315    0.0967876420065990 C
   0.2503710284953455    0.0407200271570749    0.0949213072943576 C
   0.0012235113752897    0.9569743033341709    0.0975043232179266 C
   0.7474777149554742    0.2067905918856859    0.0901395238465166 C
   0.4956908108387343    0.2920932743915404    0.0907759582584879 C
   0.7504086148460972    0.0408363110654258    0.0913147101198302 C
   0.7479874012041213    0.7136705435670305    0.1027304629368756 C
   0.7428285794372016    0.5385169354879988    0.1014746603672873 C
   0.5015661115786925    0.9568835024305724    0.0933737748552037 C
   0.4966126307340256    0.4568597453466408    0.0933043784952451 C
  -0.0065920737479197    0.4558249581264484    0.1092480390480503 C
  -0.0049817201904290    0.7921868370061188    0.1081863598180414 C
   0.5050509717606313    0.7943291729288128    0.0966184574898671 N
   0.2487253136626591    0.2076480837444689    0.0937303847801300 N
   0.2757635718739065    0.6247575635883819    0.1478700174655853 Hf
