Title
1.0
   4.9440799999999996    0.0000000000000000    0.0000000000000000
   0.0000000000000000    8.5647549999999999    0.0000000000000000
   0.0000000000000000    0.0000000000000000   20.0000000000000000
C Ir
15 1
direct
   0.2500000000000000    0.2074198014078208    0.0918148187465279 C
  -0.0029737459602984    0.2879560300066087    0.0958269390892390 C
   0.2500000000000000    0.0424052137525039    0.0852720083374683 C
  -0.0011302315942207    0.7959177003795479    0.0988616720477742 C
  -0.0006316262003726    0.9594256128259416    0.0855886863650811 C
   0.7500000000000000    0.2062568753546882    0.0860813422435032 C
   0.5029737459602983    0.2879560300066087    0.0958269390892390 C
   0.7500000000000000    0.0409828518744614    0.0813381105585321 C
   0.7500000000000000    0.7107013829799513    0.1021305056839237 C
   0.5011302315942207    0.7959177003795479    0.0988616720477742 C
   0.7500000000000000    0.5430417170398014    0.1052877335338447 C
   0.5006316262003727    0.9594256128259416    0.0855886863650811 C
   0.5185444093407634    0.4480672796816922    0.1132222994481220 C
  -0.0185444093407636    0.4480672796816922    0.1132222994481220 C
   0.2500000000000000    0.7269669110790620    0.1151259253861758 C
   0.2500000000000000    0.5394920007241296    0.1684623616095992 Ir
