Title
1.0
   8.5490480000000009    0.0000000000000000    0.0000000000000000
   0.0000000000000000    8.5490480000000009    0.0000000000000000
   0.0000000000000000    0.0000000000000000   20.0000000000000000
C N Au
19 5 1
direct
   0.9072500042871988    0.2054963822166753    0.0972722829046575 C
   0.9083960924650620    0.5025070608686028    0.0979039240288836 C
   0.9097674077285821    0.8013533749676861    0.0975534444640385 C
   0.1967024821203963    0.0840894450171713    0.0976606286326865 C
   0.0762019992831365    0.2022765141551868    0.0974871233141975 C
   0.1580563606167047    0.6509153085978959    0.0974922592581296 C
   0.0787532395476487    0.5009842945691182    0.0975437061568465 C
   0.1581096463982298    0.3516730959834043    0.0976005888293685 C
   0.0787344937889765    0.7980148711769330    0.0976565812730242 C
   0.4927805747913945    0.0872175509443082    0.0979663879357443 C
   0.3442332453543911    0.1649757758106855    0.0978556770365429 C
   0.4923970983094921    0.9170464939576884    0.0976633788981946 C
   0.3442198014043527    0.8366026969238592    0.0975717974333887 C
   0.7875837646539529    0.0870666614063494    0.0972582414575261 C
   0.6398227486207562    0.1678007373725778    0.0980693423581304 C
   0.7884595251873129    0.9189102163554962    0.0974133399793484 C
   0.8298278115202851    0.6512477241771552    0.0978240976149872 C
   0.8276722871372798    0.3541887440620018    0.0980676923328492 C
   0.6407543233199609    0.8365167743869207    0.0976572489799433 C
   0.3191759195892928    0.3261099257192047    0.0978028449558467 N
   0.3194168004985937    0.6780012313928168    0.0972269209477103 N
   0.6660991692486253    0.3292239144178146    0.0994242177414045 N
   0.6681021024501753    0.6754615823774852    0.0979807960702946 N
   0.1983676378861974    0.9156068251514454    0.0977551351734005 N
   0.4945274637919947    0.5015027979915148    0.0979973422228361 Au
