Title
1.0
   9.8694509999999998    0.0000000000000000    0.0000000000000000
   0.0000000000000000    8.5490480000000009    0.0000000000000000
   0.0000000000000000    0.0000000000000000   20.0000000000000000
C N Nb
28 2 1
direct
   0.0548874377502930    0.0890806095730121    0.0912709832416080 C
   0.9305470487944938    0.1726309136802073    0.0867029236702766 C
   0.0569256577967669    0.9223617073262778    0.0917780664675050 C
   0.9326189917704442    0.3393691487279550    0.0876469156110492 C
   0.0565010274204941    0.5904852376285210    0.0936069768671171 C
   0.9328247554985578    0.6739187031273338    0.0898014620506479 C
   0.0562395051303681    0.4223897637490540    0.0931231248233288 C
   0.9312464435192647    0.8399596767236863    0.0885558325457504 C
   0.3052426957853329    0.0879720252732629    0.0996702885348646 C
   0.1793413139291596    0.1700127932128187    0.0967145825616030 C
   0.1796284258174005    0.3372850601283537    0.0978363640789319 C
   0.3045593712145256    0.5870658144028867    0.1046621178815429 C
   0.1815329638793770    0.6726383026199878    0.0978561416983503 C
   0.3025424453718100    0.4193684516097267    0.1049110456771617 C
   0.1816498788423070    0.8396230584476141    0.0963535072667390 C
   0.5530817154366500    0.0930307123856776    0.0939661445152038 C
   0.4280166946855812    0.1766179555115370    0.1024312158271002 C
   0.5526797962668708    0.9248506255651350    0.0942703514122423 C
   0.4297394667641845    0.6690485466478754    0.1094717418887852 C
   0.4301517359628000    0.8356309970219652    0.1015746785284319 C
   0.8042445464804270    0.0901875172521314    0.0842741889448811 C
   0.6786159757117723    0.1754457825611959    0.0843065756348986 C
   0.8046757457002945    0.9239427507768933    0.0854754540845280 C
   0.6826285707567755    0.3407246770146726    0.0800050665581720 C
   0.8074356034520842    0.5918220795191653    0.0852296932633902 C
   0.6825525717893700    0.6751573478015396    0.0851371118552404 C
   0.8077357367265884    0.4225063103487861    0.0824126851257209 C
   0.6783956057969657    0.8407935435051048    0.0864764571645299 C
   0.4241682904033809    0.3396675241004032    0.1109969651035112 N
   0.3064906384320443    0.9224128932593540    0.0988262782530577 N
   0.5862343431136346    0.5048744704978853    0.1356200588638788 Nb
