Title
1.0
   9.8694509999999998    0.0000000000000000    0.0000000000000000
   0.0000000000000000    8.5490480000000009    0.0000000000000000
   0.0000000000000000    0.0000000000000000   20.0000000000000000
C N Os
25 5 1
direct
   0.0548997593591244    0.0891492928089513    0.0843331203556903 C
   0.9303350285977082    0.1715187895034566    0.0846176885029106 C
   0.0569336889940178    0.9213029119009253    0.0856716109182451 C
   0.9343688144458049    0.3388700205814487    0.0832602372085221 C
   0.0576188994186815    0.5904325921153747    0.0818553285929183 C
   0.0576537870325337    0.4241029454884510    0.0803448023756432 C
   0.9313938187755496    0.8388934926413570    0.0867415018204190 C
   0.3067570265524913    0.0888765980246705    0.0919307511723072 C
   0.1806534480881415    0.1708849336725240    0.0859663869201655 C
   0.1811007697152663    0.3392927217448340    0.0841855744751413 C
   0.3021685618865609    0.5898327544108981    0.0947870385136761 C
   0.1808135835256541    0.6735943205140517    0.0861063550935828 C
   0.3026666148176978    0.4210566298910227    0.0941600359241374 C
   0.1816661223427257    0.8411712379893439    0.0880827806790529 C
   0.4282611882478122    0.1762434708041282    0.1005303053908658 C
   0.5530322762090092    0.9211790467309113    0.1025031422228696 C
   0.4281253357447379    0.8366153972498325    0.1019873208221776 C
   0.8029369984273980    0.0900491849777247    0.0902565873055707 C
   0.6807142415565991    0.1773425195357161    0.0986115431625617 C
   0.8043619036773957    0.9197315493024010    0.0912570954800979 C
   0.6892821676197266    0.3458925057388484    0.1076533075033251 C
   0.8160720589556164    0.5912853979731356    0.0959934204868006 C
   0.6909572825466987    0.6680281042413510    0.1111100959754429 C
   0.8157960302959927    0.4226391463480061    0.0935774767788332 C
   0.6804529766067903    0.8366554435056173    0.1008715196553265 C
   0.9343845815724761    0.6727946589440369    0.0858310906629690 N
   0.5541037813692968    0.0941680747001168    0.1018013863954117 N
   0.4208196978646613    0.3377600363423204    0.1089713719837382 N
   0.4195133603796674    0.6737911854031519    0.1107882989654663 N
   0.3057505255814045    0.9219702878349427    0.0927242061588490 N
   0.5595406697927758    0.5057497490804551    0.1344536184973310 Os
