Title
1.0
   8.5490480000000009    0.0000000000000000    0.0000000000000000
   0.0000000000000000    8.5490480000000009    0.0000000000000000
   0.0000000000000000    0.0000000000000000   20.0000000000000000
C N Au
20 4 1
direct
   0.9093965106062916    0.2053950489415083    0.0974706934856168 C
   0.9117780418062279    0.8012871732855433    0.0975066481261036 C
   0.1966745520432966    0.0841408542478054    0.0978099831120276 C
   0.0764218285034148    0.2004663563758782    0.0976401895474622 C
   0.1544668240937933    0.6478104692571293    0.0977495055527289 C
   0.0717085711046612    0.5010858431511134    0.0977627551290408 C
   0.1539420788355857    0.3555403250352128    0.0977555715819119 C
   0.0797002521020036    0.7995468974409256    0.0976695194543485 C
   0.4951873024086265    0.0877258039200690    0.0978212053812526 C
   0.3469463936924926    0.1672448591726778    0.0979223503934691 C
   0.4948892109955954    0.9165777142085874    0.0977434189754209 C
   0.3473811108338687    0.8333597362181704    0.0978068797318333 C
   0.7900107443862052    0.0871826607537706    0.0974038210868335 C
   0.6426695007819598    0.1674907752562035    0.0977699209051342 C
   0.7909171832816645    0.9190052828592614    0.0974085551563401 C
   0.8283538514618332    0.6517075350954851    0.0977240390990445 C
   0.8263483053735616    0.3540566861897686    0.0977547127303702 C
   0.6435186658214103    0.8372828554361629    0.0976593442282376 C
   0.3190507303133333    0.3333170801083969    0.0978998348883887 C
   0.3199795246223217    0.6699886541362863    0.0977923915013161 C
   0.9031388721171963    0.5027300890876667    0.0978478097999868 N
   0.6672817226953056    0.3302675671543630    0.0980736066526865 N
   0.6694334573270913    0.6747475907133180    0.0979158553502576 N
   0.1974886612006677    0.9151251778233995    0.0978262602005550 N
   0.4887281035915831    0.5017069641313177    0.0979701279296055 Au
