Title
1.0
   9.8694509999999998    0.0000000000000000    0.0000000000000000
   0.0000000000000000    8.5490480000000009    0.0000000000000000
   0.0000000000000000    0.0000000000000000   20.0000000000000000
C N Fe
25 5 1
direct
   0.0556836220502252    0.0898181001061192    0.0955880474444581 C
   0.9315897538942038    0.1717976895907256    0.0958531492762118 C
   0.0572597355258829    0.9230529672384272    0.0956350604278810 C
   0.9330312030063128    0.3393903177055533    0.0955908767532944 C
   0.0567132212512732    0.5899080437379070    0.0949062488467243 C
   0.9330960245648610    0.6733311828060088    0.0955454596545226 C
   0.0567196558958914    0.4231616935861306    0.0949096370898180 C
   0.9319584410924068    0.8401151954109018    0.0958335008992392 C
   0.3070867631966328    0.0890026335964279    0.0967716775555649 C
   0.1811900524011720    0.1712395091281329    0.0957214618502542 C
   0.1801552168130781    0.3383833522856542    0.0954596927725722 C
   0.3023803818435827    0.5896040969286181    0.0966309464663831 C
   0.1804517926887931    0.6743870119460501    0.0955110916270803 C
   0.3026475735797429    0.4224660848324787    0.0965659289695488 C
   0.1814651581883706    0.8405204383846405    0.0959029746633510 C
   0.5563824346201249    0.0934668947669370    0.0982260262804619 C
   0.4298447171203998    0.1781328939801022    0.0978696891304153 C
   0.5551168654691633    0.9189799009505083    0.0982087733178340 C
   0.4296296980711511    0.8333131117929680    0.0979064308940990 C
   0.8048439106091270    0.0901366404693263    0.0967928178822172 C
   0.6817637193008399    0.1796704199649456    0.0978990186181584 C
   0.8050104316811946    0.9219521698889953    0.0967500330847374 C
   0.8102864813599917    0.5901782021422317    0.0967512005390414 C
   0.8102043803805650    0.4220631296219211    0.0967605309765893 C
   0.6816352024820159    0.8319479015035480    0.0978734601582878 C
   0.4246206592221587    0.3422085598424137    0.0982210163310240 N
   0.4240316751300932    0.6715358349894571    0.0983155557048882 N
   0.6871834686521779    0.3439852918414270    0.0982809621063005 N
   0.6876064090290716    0.6685625006135767    0.0983573183501806 N
   0.3073854784588779    0.9225802985351053    0.0968259949821249 N
   0.5561618724206175    0.5059829318127592    0.0995004173467939 Fe
