Title
1.0
   9.8694509999999998    0.0000000000000000    0.0000000000000000
   0.0000000000000000    8.5490480000000009    0.0000000000000000
   0.0000000000000000    0.0000000000000000   20.0000000000000000
C N Nb
29 2 1
direct
   0.0561734768375085    0.0908203898526809    0.0831295229890441 C
   0.9315229418140433    0.1724725930802507    0.0849366010321838 C
   0.0567530213676830    0.9237827107674955    0.0837997618252942 C
   0.9319796743039779    0.3395137583329256    0.0881174460076614 C
   0.0572826851896502    0.5895981844685870    0.0849228409857055 C
   0.9326859033990149    0.6719467276655101    0.0883935827441843 C
   0.0578024022306061    0.4226437271197394    0.0856895675108090 C
   0.9318536470984125    0.8388479927444190    0.0862744125896997 C
   0.3057329867753364    0.0888871962979027    0.0877842220328897 C
   0.1821453550945102    0.1732494568210527    0.0850428320241998 C
   0.1838123919673884    0.3407302206600547    0.0872075843161979 C
   0.3034297966302922    0.5927864199923507    0.0988303843974887 C
   0.1812819080991737    0.6746433299878880    0.0873527284547906 C
   0.3085763595484015    0.4256261249484628    0.0968573689674368 C
   0.1805852334288218    0.8411226757071512    0.0866343456750262 C
   0.5560260632892264    0.0862833312009416    0.0942995267376682 C
   0.4307453805464993    0.1702772070416820    0.0934815811613802 C
   0.5536894599060576    0.9195174348320566    0.0989466524490630 C
   0.4316946523439110    0.3356417734063326    0.1028344902706150 C
   0.5580564571842842    0.4067807384705269    0.1198660769179860 C
   0.4248180009855824    0.8417518475494133    0.1010485613542126 C
   0.8067158474227824    0.0878614547734356    0.0869065139151697 C
   0.6818342495417354    0.1691676728738823    0.0931127488684296 C
   0.8062177488060865    0.9219434249043417    0.0886764522384622 C
   0.6831493858021694    0.3340111952377520    0.1034693170274415 C
   0.8104491763343411    0.5887800028665808    0.1008151211155669 C
   0.6932233235786381    0.6773723967060949    0.1173058108887542 C
   0.8078846206111070    0.4210692485588670    0.0987085462943307 C
   0.6824928319615412    0.8383189829300933    0.1006101239921651 C
   0.4134954729756278    0.6861863407566741    0.1186833374187671 N
   0.3047589278795705    0.9247790474140628    0.0894311406068920 N
   0.5527696170460232    0.5938323920307819    0.1805057971905299 Nb
