Title
1.0
   4.9440799999999996    0.0000000000000000    0.0000000000000000
   0.0000000000000000    8.5647549999999999    0.0000000000000000
   0.0000000000000000    0.0000000000000000   20.0000000000000000
C Mn
14 1
direct
   0.2500000000000000    0.2069540298638073    0.0977358430839186 C
  -0.0002896139376938    0.2926557225910978    0.0979963137910397 C
   0.2500000000000000    0.0426245449287130    0.0977204897734467 C
  -0.0002956813594781    0.9569105177889160    0.0979809783547095 C
   0.7500000000000000    0.2084238681008489    0.0966585907307846 C
   0.5002896139376938    0.2926557225910978    0.0979963137910397 C
   0.7500000000000000    0.0411355919282611    0.0966459414790436 C
   0.7500000000000000    0.7110699859591192    0.0986537474477731 C
   0.7500000000000000    0.5384946651316956    0.0986532502013413 C
   0.5002956813594781    0.9569105177889160    0.0979809783547095 C
   0.5040016887753155    0.4571168292943204    0.1006468654487986 C
  -0.0040016887753154    0.4571168292943204    0.1006468654487986 C
  -0.0040170310206884    0.7924534695539996    0.1006348633279771 C
   0.5040170310206885    0.7924534695539996    0.1006348633279771 C
   0.2500000000000000    0.6247052356308894    0.1273940954386455 Mn
