Title
1.0
   4.9440799999999996    0.0000000000000000    0.0000000000000000
   0.0000000000000000    8.5647549999999999    0.0000000000000000
   0.0000000000000000    0.0000000000000000   20.0000000000000000
C N Ni
11 3 1
direct
   0.0018424985073209    0.2941944910152682    0.1003238662827827 C
   0.2500000000000000    0.0380305197368530    0.1004266001095985 C
  -0.0024621133834046    0.9543885709641775    0.1005192955231361 C
   0.7500000000000000    0.2090916884744469    0.1002946206784059 C
   0.4981575014926791    0.2941944910152682    0.1003238662827827 C
   0.7500000000000000    0.0398502294156968    0.1003870301775757 C
   0.7500000000000000    0.7168255300123938    0.1007873928400057 C
   0.7500000000000000    0.5401415207465311    0.1007104956642120 C
   0.5024621133834044    0.9543885709641775    0.1005192955231361 C
   0.4986518613621644    0.4614944949202573    0.1005693459663028 C
   0.0013481386378355    0.4614944949202573    0.1005693459663028 C
  -0.0103737961382205    0.7906136691650408    0.1007509105889080 N
   0.5103737961382204    0.7906136691650408    0.1007509105889080 N
   0.2500000000000000    0.2067086836193172    0.1003217000752011 N
   0.2500000000000000    0.6196503758652769    0.1007253237327453 Ni
