Title
1.0
   4.9440799999999996    0.0000000000000000    0.0000000000000000
   0.0000000000000000   17.1295089999999988    0.0000000000000000
   0.0000000000000000    0.0000000000000000   20.0000000000000000
C N Re
28 2 1
direct
  -0.0085873216029661    0.1057173857313808    0.2941926486148576 C
   0.2392576947046127    0.1481850312499768    0.2950654309121361 C
   0.2345498293201807    0.2322368742991782    0.2988795490028126 C
  -0.0178527601852299    0.2736942360713513    0.3039337874649890 C
   0.0180754881761284    0.6009211334823583    0.2971855154324428 C
   0.2613009290001804    0.7267596780675957    0.2954845166434384 C
   0.0043164107671024    0.8531729870453114    0.2930576397170756 C
   0.2526308912832635    0.8954694611601781    0.2932351743183886 C
   0.2476631996462299    0.9794999464608961    0.2931050062255455 C
   0.0093860863039253    0.7690087623485368    0.2936075635378657 C
   0.4911103037425200    0.1059295433846674    0.2932115273325559 C
   0.7401720213070141    0.1478107460263326    0.2939149039808926 C
   0.7344609323745678    0.2319294090474589    0.2963808115984619 C
   0.4959849554513490    0.0217822477861809    0.2928245601278207 C
   0.7380024093909661    0.3942658027097261    0.3095911912921317 C
   0.7627660248162181    0.4806250432918515    0.3096393673133929 C
   0.4827077081873137    0.2739959676498613    0.2967054893799990 C
   0.5186798216361789    0.6012375409791930    0.3041810176027689 C
   0.7603641418617433    0.7271214203683101    0.2943680518614933 C
   0.5041108337305696    0.8532784314543358    0.2934505956631485 C
   0.7526609583088922    0.8954018553064388    0.2929551005635678 C
   0.7475886049309912    0.9795569317122298    0.2928199150042474 C
   0.5090990689440693    0.7692282324828106    0.2945751510982805 C
   0.7662674858503544    0.6430102445767986    0.2968245399226683 C
   0.2661577786400658    0.6427048443130511    0.2992859677884228 C
  -0.0038061174924890    0.0216821818559654    0.2932167718917062 C
   0.0082194686890235    0.5170683274724558    0.2983531570984003 C
   0.4927644533479320    0.3578105613198588    0.2978662838711313 C
   0.5253078830763341    0.5218883416073213    0.3194486246962206 N
  -0.0244242974323370    0.3529870202954931    0.3195389948966448 N
   0.2510721132253008    0.4373618104428914    0.3381611451464452 Re
