Title
1.0
   8.5490480000000009    0.0000000000000000    0.0000000000000000
   0.0000000000000000    8.5490480000000009    0.0000000000000000
   0.0000000000000000    0.0000000000000000   20.0000000000000000
C N V
21 3 1
direct
   0.9090224439415759    0.2041733476566570    0.0977527624486188 C
   0.9041662397826407    0.5027208659514143    0.0981117980421525 C
   0.9108981340056013    0.8022204158420859    0.0977116164969005 C
   0.1979898516649047    0.0823372907572885    0.0975470238763641 C
   0.0749035841468159    0.2031832524631217    0.0977982262196839 C
   0.1562769392263261    0.6494835403083318    0.0978179031691536 C
   0.0736786872150097    0.5015203954612893    0.0980550389438981 C
   0.1550523069534306    0.3539138937893054    0.0979841795715177 C
   0.0780898801446206    0.7982808616237056    0.0977047216191336 C
   0.4943856011510533    0.0863949584715857    0.0974435671019575 C
   0.3462319078416743    0.1639582073239770    0.0975465940234208 C
   0.4938448274015826    0.9174787294806490    0.0973938317302114 C
   0.3465343043963820    0.8363396141757504    0.0973695256234276 C
   0.7887151733437402    0.0860920638011334    0.0974677601453062 C
   0.6423442048906991    0.1668277882953614    0.0975792166201877 C
   0.7895084898980714    0.9193085483556523    0.0974433332167374 C
   0.8277352066618391    0.6526151232837234    0.0980266534743460 C
   0.8259024644848163    0.3536031464921884    0.0980527113650702 C
   0.6426426868416354    0.8372125146191486    0.0975516493968413 C
   0.3224710689088410    0.3319708489689273    0.0979074386153512 C
   0.3232747132338864    0.6720569771056395    0.0975760744852392 C
   0.6656355295475233    0.3296427475587052    0.0979952045698464 N
   0.6669146558589897    0.6755587725683670    0.0980164674201466 N
   0.1981654475076821    0.9178028608371416    0.0974906464713851 N
   0.4910276509506504    0.5000932348088708    0.0983610553530753 V
