Title
1.0
   9.8694509999999998    0.0000000000000000    0.0000000000000000
   0.0000000000000000    8.5490480000000009    0.0000000000000000
   0.0000000000000000    0.0000000000000000   20.0000000000000000
C N Tc
26 4 1
direct
   0.0554522719814831    0.0910911061217937    0.0873399523065336 C
   0.9306027524182092    0.1731993533885298    0.0896361323235214 C
   0.0575884801338979    0.9238464036859051    0.0873650303038853 C
   0.9328020116602076    0.3408618083940363    0.0883961587948618 C
   0.0571459451611129    0.5904065122443232    0.0827777046990539 C
   0.9338707516372848    0.6751427507278537    0.0879615576945334 C
   0.0571226067154740    0.4234425854027818    0.0831018100315774 C
   0.9326027089712301    0.8412170533779088    0.0896888208384490 C
   0.3062034692967178    0.0881347079146823    0.0936449212898045 C
   0.1804859409334831    0.1715937054153792    0.0881225867833750 C
   0.1807121594411384    0.3390079828573968    0.0861086716032946 C
   0.3032324326899862    0.5896519566642091    0.0915675835013682 C
   0.1809189514210788    0.6737046795584385    0.0849789385177382 C
   0.3035833501328844    0.4214704545828454    0.0934888600235125 C
   0.1812748087453685    0.8405449978077577    0.0873992951437453 C
   0.5551542105966191    0.0893385789157858    0.1057742498884324 C
   0.4277412367555450    0.1724553998712728    0.1029922128483645 C
   0.5546443435266309    0.9182711623020727    0.1049135500892348 C
   0.4273857393514903    0.8355233229120430    0.1003701039116177 C
   0.8046303715845147    0.0902333246695541    0.0959040846360573 C
   0.6813859943366707    0.1749161004835632    0.1052459306841872 C
   0.8060174934826159    0.9221650212945398    0.0958267117369636 C
   0.6890130885303938    0.3425258437082021    0.1130860360880121 C
   0.8130563663130520    0.5933808097820539    0.0987890818877699 C
   0.8116243974232581    0.4251049036505644    0.0986906666209898 C
   0.6839761755300646    0.8342338426887832    0.1048891741243474 C
   0.4205909711847690    0.3358525295389834    0.1088945126274829 N
   0.6938243874675694    0.6727543021001841    0.1128829053737181 N
   0.4202295022119012    0.6766416559334619    0.1036236010048292 N
   0.3067492140775094    0.9226048687782253    0.0922408884480488 N
   0.5535128662878470    0.5015572752268805    0.1352632661747267 Tc
