Title
1.0
   4.9440799999999996    0.0000000000000000    0.0000000000000000
   0.0000000000000000    8.5647549999999999    0.0000000000000000
   0.0000000000000000    0.0000000000000000   20.0000000000000000
C N V
9 5 1
direct
  -0.0023573539337668    0.2951048059120055    0.0976168656571378 C
   0.2500000000000000    0.0385014712545562    0.0985253616389112 C
  -0.0018745947588237    0.9559531215365752    0.0983320223146962 C
   0.7500000000000000    0.2067763309135478    0.0950550315684797 C
   0.5023573539337670    0.2951048059120055    0.0976168656571378 C
   0.7500000000000000    0.0411177463217228    0.0955700963523492 C
   0.7500000000000000    0.7113516876843728    0.0994756800459872 C
   0.7500000000000000    0.5375036326128505    0.0994206904670418 C
   0.5018745947588236    0.9559531215365752    0.0983320223146962 C
   0.5090242429905227    0.4544074722270486    0.1015878228855024 N
  -0.0090242429905227    0.4544074722270486    0.1015878228855024 N
  -0.0097946544571895    0.7930508227256980    0.1024026779318541 N
   0.5097946544571892    0.7930508227256980    0.1024026779318541 N
   0.2500000000000000    0.2129387756308058    0.0981389060998164 N
   0.2500000000000000    0.6264589107794911    0.1219154562490367 V
