Title
1.0
   8.5490480000000009    0.0000000000000000    0.0000000000000000
   0.0000000000000000    8.5490480000000009    0.0000000000000000
   0.0000000000000000    0.0000000000000000   20.0000000000000000
C N Co
19 5 1
direct
   0.9071596060890413    0.2061175353352382    0.0976374228630098 C
   0.9076672163441464    0.5025367982677506    0.0977038280220147 C
   0.9096239277732270    0.8005759251069970    0.0976166292863392 C
   0.1973155274465712    0.0842919367627659    0.0976882075789440 C
   0.0762749135671027    0.2031115959914439    0.0976535233497222 C
   0.1607034667427361    0.6501281435353248    0.0977217203003320 C
   0.0796560549033943    0.5011804033981830    0.0977098375017571 C
   0.1608085676628446    0.3526559661425646    0.0977648692050242 C
   0.0789081024869604    0.7976262192257846    0.0976470376410677 C
   0.4926799569647030    0.0880911920214836    0.0977910654862667 C
   0.3446477552871964    0.1671282106329515    0.0978193786620632 C
   0.4922670478037820    0.9161196357665815    0.0977280276065853 C
   0.3448397784455012    0.8341295195424253    0.0977388662934978 C
   0.7867898443814960    0.0870786328784043    0.0976656147798589 C
   0.6388152709725315    0.1704397693573599    0.0978094801095948 C
   0.7874630122380872    0.9188329985275084    0.0976367570151259 C
   0.8274919657673518    0.6505081308591258    0.0976961325434569 C
   0.8251171663914114    0.3551196081588477    0.0977506259881656 C
   0.6396136666897225    0.8338965769670750    0.0977229150645682 C
   0.3233399581449863    0.3302611866935695    0.0979543224575628 N
   0.3232388628642646    0.6742023905013640    0.0978072841453658 N
   0.6616923035840886    0.3340178493356387    0.0979317832946189 N
   0.6637869420148125    0.6708455143934884    0.0978261681864305 N
   0.1986446583971507    0.9154829744360331    0.0977056798184221 N
   0.4968664270368837    0.5004112861620893    0.0979778228001860 Co
