Title
1.0
   8.5490480000000009    0.0000000000000000    0.0000000000000000
   0.0000000000000000    8.5490480000000009    0.0000000000000000
   0.0000000000000000    0.0000000000000000   20.0000000000000000
C N Y
21 3 1
direct
   0.9083900007288849    0.2054141607787433    0.0927932078167517 C
   0.9092140815310423    0.5036130698721216    0.0965653746278534 C
   0.9135753192103065    0.8036551119618212    0.0943861481547716 C
   0.1945703685819297    0.0808092423383028    0.0944978621097065 C
   0.0732395539499590    0.1996428938939794    0.0941138113114477 C
   0.1591639485053456    0.6488458241665450    0.0950177656917473 C
   0.0779897132547960    0.5007494852826052    0.0965493378312774 C
   0.1557971238423084    0.3493651083368509    0.0975197480877125 C
   0.0796876768343163    0.7990458767036430    0.0932929055457127 C
   0.4917728436466693    0.0863626520956398    0.0963222027365825 C
   0.3399918885738559    0.1620586912843173    0.0976757261413901 C
   0.4929024826227592    0.9174302115349434    0.0963716454436532 C
   0.3461201829558838    0.8357560073215909    0.0949408774799381 C
   0.7877053459126119    0.0859862941362921    0.0927604154351308 C
   0.6379115476014187    0.1666298599879405    0.0945748517251228 C
   0.7915176528932318    0.9221342434662616    0.0940903280321866 C
   0.8324577750892097    0.6551277571579367    0.0976685707419574 C
   0.8284073414982316    0.3561991853032110    0.0947094872082916 C
   0.6434322583021214    0.8388494285524062    0.0974465008136009 C
   0.3232259406510226    0.6733979760874053    0.0957009520689259 C
   0.6633408227493196    0.3322408284166997    0.0962727344901446 C
   0.3147827703938444    0.3236562055818629    0.1016525362789712 N
   0.6712001437702787    0.6794910764993864    0.1017270852678950 N
   0.1970196122953221    0.9157873730687922    0.0929977919183262 N
   0.4919956046053167    0.5025414361707154    0.1440571330408822 Y
