Title
1.0
   4.9440799999999996    0.0000000000000000    0.0000000000000000
   0.0000000000000000    8.5647549999999999    0.0000000000000000
   0.0000000000000000    0.0000000000000000   20.0000000000000000
C N Y
12 3 1
direct
   0.2500000000000000    0.2162591419468261    0.0904863199466839 C
  -0.0061657938971164    0.2955787923600900    0.0873107950656624 C
   0.2500000000000000    0.0461543415938928    0.0964862741343835 C
   0.0043748165313877    0.7965809800939442    0.1077223126105862 C
   0.0009249135200693    0.9618612742710723    0.0982696992292028 C
   0.7500000000000000    0.2077374248927677    0.0883177169568003 C
   0.5061657938971164    0.2955787923600900    0.0873107950656624 C
   0.7500000000000000    0.0430749294517040    0.0928506201272786 C
   0.7500000000000000    0.7066525740746701    0.1063634348317890 C
   0.4956251834686123    0.7965809800939442    0.1077223126105862 C
   0.7500000000000000    0.5380461425937271    0.0931382051704220 C
   0.4990750864799310    0.9618612742710723    0.0982696992292028 C
   0.5131910635236316    0.4581025296680635    0.0876861997709951 N
  -0.0131910635236321    0.4581025296680635    0.0876861997709951 N
   0.2500000000000000    0.7248193380019989    0.1195457894613374 N
   0.2500000000000000    0.4930089546580738    0.1733456260184196 Y
