Title
1.0
   8.5490480000000009    0.0000000000000000    0.0000000000000000
   0.0000000000000000    8.5490480000000009    0.0000000000000000
   0.0000000000000000    0.0000000000000000   20.0000000000000000
C N V
23 1 1
direct
   0.9118858358621754    0.2056204387993427    0.0954594515045072 C
   0.9077273660309387    0.5015883852538116    0.0953128022766524 C
   0.9102675396444216    0.7978075812139563    0.0954742316498500 C
   0.1971626390878296    0.0828444937061218    0.0954869753983626 C
   0.0740905204323662    0.2059461637608240    0.0954694330423961 C
   0.1968275165136935    0.9206428608084720    0.0954940120401942 C
   0.1564748889579277    0.6488157727691386    0.0953515692469521 C
   0.0776135201763514    0.5024121001461838    0.0953341113947209 C
   0.1570865299038735    0.3549010956333278    0.0953332353106596 C
   0.0750167797985299    0.7971363641500261    0.0954807210522205 C
   0.4936082898801273    0.0863594773579253    0.0953598174588939 C
   0.3461258823470604    0.1658296367178909    0.0953583041206556 C
   0.4927650565783376    0.9165178666988510    0.0953660863590894 C
   0.3463879371340594    0.8372469118462129    0.0953668556072143 C
   0.7883737343831302    0.0837967145011652    0.0954711704977679 C
   0.6400187237595851    0.1652409490718839    0.0953309061447019 C
   0.7890353328029476    0.9190567169574939    0.0954786197867064 C
   0.8269178948710870    0.6499377835824488    0.0953239470496161 C
   0.8284811114884125    0.3551799349231790    0.0953059137211367 C
   0.6411133889949282    0.8357112624328848    0.0953398312199825 C
   0.3235158510451976    0.3322424902748256    0.0951992252933161 C
   0.3237356921929436    0.6720731971238172    0.0952118984796526 C
   0.6632878440634582    0.3324586997238723    0.0951679955019444 C
   0.6650819430608529    0.6739049095180433    0.0951811663533708 N
   0.4928101809897577    0.5015181930283140    0.0950467194894137 V
