Title
1.0
   4.9440799999999996    0.0000000000000000    0.0000000000000000
   0.0000000000000000    8.5647549999999999    0.0000000000000000
   0.0000000000000000    0.0000000000000000   20.0000000000000000
C N Pd
13 1 1
direct
   0.2505079075365062    0.2057039457715892    0.0993824925229211 C
  -0.0018536164246704    0.2920143862067856    0.1003344036758608 C
   0.2539831029721747    0.0406818249370774    0.0988785461428742 C
   0.0033485370048900    0.9567905625853407    0.0969403860306735 C
   0.7501912935430063    0.2075568588268208    0.0980002940726616 C
   0.4999896651987549    0.2905391718167626    0.0986544962271990 C
   0.7541100291441799    0.0412613203475488    0.0972522069798461 C
   0.7467922718698097    0.7146018012080055    0.0984587090319389 C
   0.7432480701147606    0.5400677224804920    0.0986704506205878 C
   0.5076511960202256    0.9563536371025977    0.0999387365842677 C
   0.5052045176048983    0.4542413414511131    0.0992852251682829 C
  -0.0132980073038435    0.4560344526940962    0.1044772417513954 C
  -0.0108483619180151    0.7938193638588109    0.0961900288593189 C
   0.5155189617911127    0.7980623318928156    0.1040678243961006 N
   0.2454544328462103    0.6239522788201455    0.1174489579360752 Pd
