Title
1.0
   4.9440799999999996    0.0000000000000000    0.0000000000000000
   0.0000000000000000   17.1295089999999988    0.0000000000000000
   0.0000000000000000    0.0000000000000000   20.0000000000000000
C Ru
31 1
direct
   0.0000223250077651    0.1041629600848211    0.2799933866174341 C
   0.2498676409712395    0.1458560587466135    0.2839801630740940 C
   0.2498970164522433    0.2285637821546041    0.2949159122667598 C
  -0.0018541770117700    0.3509234726276945    0.3183488506517457 C
  -0.0012530486781101    0.2694692072626848    0.3011011694222647 C
  -0.0027138793311382    0.6073165109287088    0.3162833304434833 C
   0.2499200624742066    0.7291679005512490    0.2937577408445132 C
   0.0000508410516524    0.8538055375876178    0.2794747092832581 C
   0.2498835184713723    0.8955285850233105    0.2771960420260129 C
   0.2498743929219462    0.9789865626866294    0.2753451206821977 C
   0.0001384791137985    0.7707665515909214    0.2874327090872363 C
   0.4996569470202837    0.1041568895955887    0.2799839001033081 C
   0.7498290323205340    0.1456347114865298    0.2833259757544421 C
   0.7498614709436313    0.2282868745326818    0.2934611063417084 C
   0.4998130200548354    0.0207481711164959    0.2758501551369919 C
   0.5017535523512825    0.3509289357980955    0.3183322098349955 C
   0.7499341484617568    0.3941627529959637    0.3239656770321305 C
   0.7499082933882412    0.4796065262968738    0.3280388074352625 C
   0.5010376151934808    0.2694827388613918    0.3010893809840379 C
   0.5025621194645177    0.6072790778466391    0.3162250642891782 C
   0.7498795079575470    0.7299739097854829    0.2922369386642261 C
   0.4996576768623535    0.8537969400773939    0.2794681171595318 C
   0.7498452213510807    0.8953965130803981    0.2769475969011386 C
   0.7498352068961120    0.9789863082526091    0.2751449894741161 C
   0.4996856935394955    0.7707660134865575    0.2874237854427503 C
   0.7499031902651648    0.6479775170142843    0.3057411275558933 C
   0.2499690635453355    0.6475511665175784    0.3095955862636947 C
  -0.0000868425641137    0.0207442171227590    0.2758524664063298 C
   0.5153239963877257    0.5265511806274785    0.3347737742770045 C
   0.9845115067227127    0.5265696096038744    0.3348295672726729 C
   0.2499738162387945    0.3866164527225538    0.3345820390714975 C
   0.2501355921560277    0.4787873639339063    0.3878676002000402 Ru
