Title
1.0
   8.5490480000000009    0.0000000000000000    0.0000000000000000
   0.0000000000000000    8.5490480000000009    0.0000000000000000
   0.0000000000000000    0.0000000000000000   20.0000000000000000
C N V
17 7 1
direct
   0.9076595825453887    0.2056819688206817    0.0974980814107368 C
   0.9106344899260728    0.8006408141727284    0.0975924213342350 C
   0.1970235447852442    0.0832763387946243    0.0976646822979699 C
   0.0767828312674614    0.2008139049803059    0.0975616270812285 C
   0.1576489619442908    0.6514846097676036    0.0978005733109650 C
   0.0786778318814674    0.5004452215734018    0.0977866771244492 C
   0.1573825329337815    0.3499456534213462    0.0977707256910053 C
   0.0790608675079667    0.7990569937066058    0.0976320204112649 C
   0.3442309144140441    0.1655557161135080    0.0978195905141853 C
   0.4924733232251659    0.9172897743030846    0.0978001231413107 C
   0.3439660694809293    0.8373127217858412    0.0978295640099427 C
   0.7875515314774122    0.0870109823712743    0.0975368710064857 C
   0.6411481112344989    0.1688546530887904    0.0977007498518475 C
   0.7898010472370243    0.9183451940425625    0.0975631027878598 C
   0.8290448232648654    0.6511624019592508    0.0977406089434331 C
   0.8270318322900518    0.3532538425091517    0.0976487895015573 C
   0.6428003838587475    0.8369899419869704    0.0977564415308102 C
   0.4931691938185789    0.0900003535419431    0.0978392981331049 N
   0.9059505825750093    0.5021642467745293    0.0978075689387380 N
   0.3212511579873970    0.3263677884447266    0.0979600338815541 N
   0.3206907119322802    0.6770391086389279    0.0979169366599584 N
   0.6642300762226221    0.3311723577053071    0.0978454518292607 N
   0.6678835371507282    0.6730607501813127    0.0978767577179792 N
   0.1965159964980223    0.9153124068048150    0.0977216636162742 N
   0.4928020645409419    0.5025522545107055    0.0980346392738241 V
