Title
1.0
   4.9440799999999996    0.0000000000000000    0.0000000000000000
   0.0000000000000000   17.1295089999999988    0.0000000000000000
   0.0000000000000000    0.0000000000000000   20.0000000000000000
C N Pd
28 3 1
direct
  -0.0001185850548572    0.1044704772091485    0.2884818547311716 C
   0.2498464055621370    0.1461986770615842    0.2908160548120698 C
   0.2495098828450773    0.2295509689336598    0.2976506266869547 C
   0.0023493027266949    0.3536864989644007    0.3138210095729058 C
  -0.0012640315039339    0.2709094523993595    0.3012926362398118 C
  -0.0035430286829743    0.6035060307013226    0.3071893213715201 C
   0.2513031477633142    0.7270036893185221    0.2936613815021754 C
   0.0016423485856996    0.8534965817522399    0.2880019900934552 C
   0.2509092277065969    0.8955024735450253    0.2868233670111868 C
   0.2504923324806186    0.9790530077935728    0.2861459402734076 C
   0.0023393850082545    0.7699700179442021    0.2914458327831664 C
   0.4999997404951508    0.1044697768632311    0.2884133733596322 C
   0.7497935887586695    0.1462406106013679    0.2900568677315953 C
   0.7494156612064956    0.2296546750767913    0.2959638575920328 C
   0.5004519182665297    0.0208464431739982    0.2862769636364130 C
   0.4959478813369528    0.3538637354490089    0.3132764790344595 C
   0.7492278827421465    0.3981110923979924    0.3153633582329963 C
   0.7477823106741627    0.4851493313475319    0.3132283144055030 C
   0.4999502391593408    0.2709819680883516    0.3012038466373442 C
   0.5070275077131625    0.6023157704645625    0.2996548628481310 C
   0.7516034194280986    0.7290736557508486    0.2927426564120535 C
   0.5003209400383284    0.8534098224937716    0.2873700191446397 C
   0.7508278159709898    0.8951442426419273    0.2866705809016658 C
   0.7504102474379779    0.9789096178007068    0.2859503786834324 C
   0.5002917976397391    0.7698154341153437    0.2902657637976139 C
   0.7514834612243838    0.6462017600198698    0.2987009097420298 C
   0.2514725390538370    0.6433005552755926    0.3000829235403449 C
   0.0002111663165694    0.0208272648272628    0.2863978180552083 C
   0.5140125955378897    0.5227903809291995    0.2990851220033500 N
   0.9800013224213613    0.5261033812546657    0.3241467350244480 N
   0.2488772234398355    0.3881165727704959    0.3253718669570475 N
   0.2442473537017581    0.4798770330344349    0.3970122871821851 Pd
