Title
1.0
   4.9440799999999996    0.0000000000000000    0.0000000000000000
   0.0000000000000000    8.5647549999999999    0.0000000000000000
   0.0000000000000000    0.0000000000000000   20.0000000000000000
C N Pd
13 2 1
direct
   0.2426584029277249    0.2101588739256124    0.0949212928067733 C
  -0.0122628714238093    0.2925352819918051    0.0946570827709663 C
   0.2480815137060182    0.0445241477696197    0.0901486007145641 C
   0.0096982853789340    0.7931661098686315    0.0937539660197582 C
   0.0001331498781970    0.9597738761469774    0.0885798069857316 C
   0.7429521487759645    0.2071461986669774    0.0921617957436809 C
   0.4942687692775608    0.2912153986003345    0.1014070148957776 C
   0.7485746981490073    0.0415441057184551    0.0880628699640194 C
   0.7563301975038812    0.7072562641734325    0.0970222696073687 C
   0.5007037592662328    0.7944620210535608    0.0949649759743560 C
   0.7522459518170355    0.5374981972373749    0.1035988689555555 C
   0.4998182974462433    0.9603064048108676    0.0900478118250252 C
   0.5204778638815492    0.4493758555609416    0.1203441314797410 C
  -0.0140422321501399    0.4509436226373892    0.0955778383785082 N
   0.2575168880660157    0.7188790029648233    0.0990713260234936 N
   0.2528451774995850    0.5412146388731975    0.1781923478546875 Pd
