Title
1.0
   8.5490480000000009    0.0000000000000000    0.0000000000000000
   0.0000000000000000    8.5490480000000009    0.0000000000000000
   0.0000000000000000    0.0000000000000000   20.0000000000000000
C N V
21 3 1
direct
   0.9088277822200598    0.2075692890201295    0.0953407291419910 C
   0.9127673656125086    0.8021719357788591    0.0963962508976964 C
   0.1971500192528913    0.0819653695168318    0.0969857454481127 C
   0.0732396633503249    0.2023097046819239    0.0962444342412113 C
   0.1575761899377502    0.6489029143710576    0.0961783483262136 C
   0.0740889126497619    0.5027465132537844    0.0966403380352904 C
   0.1528607420228782    0.3541037601312135    0.0977082391560740 C
   0.0799070663750813    0.7987367171478578    0.0958018683311425 C
   0.4942828048951112    0.0846124349208798    0.0981499001652450 C
   0.3437748462798779    0.1623653585151523    0.0989923069851288 C
   0.4952946995705653    0.9152036850534288    0.0980489957712276 C
   0.3473924203748123    0.8336320297482129    0.0968409147215763 C
   0.7867236577878775    0.0879723608981573    0.0966390091930464 C
   0.6390065772554774    0.1683501445975431    0.0973477126315881 C
   0.7902684982862059    0.9201008292896103    0.0972604600953093 C
   0.8299852624991012    0.6528148596021146    0.0976356732537943 C
   0.8275968580232838    0.3599511431211435    0.0945986438428327 C
   0.6440358711709272    0.8351832427491318    0.0989624938313662 C
   0.3188379632815571    0.3316675967492747    0.1017625795327690 C
   0.3251533137577596    0.6706767722316054    0.0969543418028474 C
   0.6641315623320445    0.3404363517410858    0.0959288310429004 C
   0.9078858758823091    0.5058453641642426    0.0959992285155125 N
   0.6700241097415760    0.6716519511997191    0.1008910576828166 N
   0.1981581149518697    0.9156905664075758    0.0959159441245947 N
   0.4864418224883817    0.4901291051094773    0.1154809532296956 V
