Title
1.0
   4.9440799999999996    0.0000000000000000    0.0000000000000000
   0.0000000000000000   17.1295089999999988    0.0000000000000000
   0.0000000000000000    0.0000000000000000   20.0000000000000000
C N W
27 3 1
direct
   0.0017027460570781    0.1058308067275376    0.2962940541349612 C
   0.2504777434327569    0.1485937665379420    0.2968380973981317 C
   0.2507467606766901    0.2333403681899223    0.2999206862256157 C
   0.0011757109047219    0.2753157615106266    0.3054284427580530 C
  -0.0066596927110747    0.5992638708146500    0.3041365096747632 C
   0.2442691197053850    0.7268618053542244    0.2962963770570560 C
  -0.0022088231844279    0.8536748849524973    0.2952743997534835 C
   0.2484045809502577    0.8955711406260772    0.2948984757067155 C
   0.2497341013828960    0.9796772897807422    0.2949600492239346 C
  -0.0034109753749258    0.7696168867315424    0.2961153196924944 C
   0.5005809596514018    0.1063925678492994    0.2951159337623518 C
   0.7526395123468725    0.1478004647233867    0.2958353203758115 C
   0.7547316812116246    0.2318241612478260    0.2976516864734235 C
   0.4995121194894332    0.0220906296200301    0.2946558643364066 C
   0.7515591430628058    0.3942940484402307    0.3036860809747280 C
   0.7453198085789041    0.4784184256271674    0.3026533976249906 C
   0.5046711265813573    0.2723719433530552    0.2964044957094959 C
   0.4939805138051487    0.6027836859100889    0.2933433536172393 C
   0.7478071110101222    0.7271786741521402    0.2952185614839919 C
   0.4975640807981600    0.8530968703356574    0.2944879795816485 C
   0.7477654941901278    0.8955910022119264    0.2946620620682699 C
   0.7490965468890609    0.9797944812519827    0.2947313806690714 C
   0.4962294896656432    0.7688091172838305    0.2946115545697001 C
   0.7470484543300574    0.6429955715491000    0.2959691749058109 C
   0.2420347250387271    0.6425578423599388    0.2985253283630276 C
   0.0001420239612593    0.0217128634796000    0.2953202307113744 C
   0.5017415401531968    0.5206183761382873    0.2916011523116312 C
   0.9891160127970041    0.5175805267044661    0.3193571693335179 N
   0.5129541915851110    0.3529352717574378    0.2960188123159853 N
  -0.0089666386046095    0.3568026316008150    0.3189477348977893 N
   0.3002478316192360    0.4379462631779683    0.3361003142884779 W
