Title
1.0
   4.9440799999999996    0.0000000000000000    0.0000000000000000
   0.0000000000000000    8.5647549999999999    0.0000000000000000
   0.0000000000000000    0.0000000000000000   20.0000000000000000
C N Ag
14 1 1
direct
  -0.0014598548534980    0.2906162554636107    0.0872046272629940 C
   0.2500000000000000    0.0440063864498537    0.0879327738549599 C
   0.0010308754222987    0.7962321195437918    0.1050772779508636 C
   0.0005743004545966    0.9606476325304676    0.0903113756753432 C
   0.7500000000000000    0.2045938350631328    0.0825633104126284 C
   0.5014598548534980    0.2906162554636107    0.0872046272629940 C
   0.7500000000000000    0.0403948746743782    0.0841249250598643 C
   0.7500000000000000    0.7109167954725453    0.1049385739222901 C
   0.4989691245777013    0.7962321195437918    0.1050772779508636 C
   0.7500000000000000    0.5421495183011648    0.1001774863090852 C
   0.4994256995454033    0.9606476325304676    0.0903113756753432 C
   0.5074452212978782    0.4509980785641588    0.0971487220076914 C
  -0.0074452212978785    0.4509980785641588    0.0971487220076914 C
   0.2500000000000000    0.7288030068107152    0.1225723033722982 C
   0.2500000000000000    0.2071996895770672    0.0844782187332754 N
   0.2500000000000000    0.5249477214470822    0.1862404025418233 Ag
