Title
1.0
   8.5490480000000009    0.0000000000000000    0.0000000000000000
   0.0000000000000000    8.5490480000000009    0.0000000000000000
   0.0000000000000000    0.0000000000000000   20.0000000000000000
C Tc
24 1
direct
   0.9107045093199446    0.2066530736672706    0.0983111122837314 C
   0.9089030821754006    0.5017763289936232    0.0971616506261782 C
   0.9106777816276230    0.7969065735929861    0.0982157081697300 C
   0.1979679214243360    0.0841614465384188    0.0987415696895162 C
   0.0754100949319452    0.2066599744141131    0.0985803893830677 C
   0.1979512342007606    0.9194650830057962    0.0986555274747922 C
   0.1578414616228416    0.6475408812461605    0.0968412906742478 C
   0.0770856374697016    0.5018146981647339    0.0973957603909459 C
   0.1578242298478247    0.3561017922802990    0.0969983483945069 C
   0.0753901750690638    0.7969416773371734    0.0984428958626638 C
   0.4930263259827945    0.0858940650890201    0.0976066386093892 C
   0.3473596255205920    0.1666609263078789    0.0971942182818986 C
   0.4930146217625757    0.9176931623941708    0.0975492493058066 C
   0.3473278141648733    0.8369523042920297    0.0970521384320429 C
   0.7881516335572704    0.0841314847585265    0.0982963511128624 C
   0.6387343573745032    0.1666067805958842    0.0967345949951518 C
   0.7881236881005269    0.9194214931499078    0.0982517038520598 C
   0.8281803883953441    0.6474924123708590    0.0964728750545499 C
   0.8281749437189027    0.3560460852032111    0.0965557852826512 C
   0.6387061857712540    0.8369750460621317    0.0966766776017004 C
   0.3250672917717393    0.3338354793606205    0.0923834105903980 C
   0.3250642790474199    0.6697848444076900    0.0921742133502573 C
   0.6609619636087165    0.3337824914919744    0.0918179665215682 C
   0.6609592726167237    0.6697751372127856    0.0917505735534035 C
   0.4928034809173150    0.5017167580627481    0.0638443505068579 Tc
