Title
1.0
   4.9440799999999996    0.0000000000000000    0.0000000000000000
   0.0000000000000000    8.5647549999999999    0.0000000000000000
   0.0000000000000000    0.0000000000000000   20.0000000000000000
C Zn
14 1
direct
   0.2500000000000000    0.2067268404804307    0.1004328338819097 C
  -0.0001748946608291    0.2930692422036571    0.1005248410187987 C
   0.2500000000000000    0.0428470140976304    0.1004691812528191 C
  -0.0001681579751698    0.9564856316635827    0.1005752354031336 C
   0.7500000000000000    0.2085062438177285    0.1006876185670466 C
   0.5001748946608292    0.2930692422036571    0.1005248410187987 C
   0.7500000000000000    0.0410322574678900    0.1007138109535793 C
   0.7500000000000000    0.7103578639952688    0.1006034097157574 C
   0.7500000000000000    0.5391850206545582    0.1005855662460741 C
   0.5001681579751697    0.9564856316635827    0.1005752354031336 C
   0.5082073606956062    0.4568050633760219    0.1004698911234976 C
  -0.0082073606956065    0.4568050633760219    0.1004698911234976 C
  -0.0082496758385330    0.7927558898799555    0.1005274504853282 C
   0.5082496758385330    0.7927558898799555    0.1005274504853282 C
   0.2500000000000000    0.6247941052400604    0.1002927433213010 Zn
