Title
1.0
   4.9440799999999996    0.0000000000000000    0.0000000000000000
   0.0000000000000000    8.5647549999999999    0.0000000000000000
   0.0000000000000000    0.0000000000000000   20.0000000000000000
C N Sc
13 1 1
direct
   0.2474364950163548    0.2062021370230714    0.0954541621726133 C
  -0.0066077938683469    0.2920183191185814    0.1007328811510350 C
   0.2497202206648455    0.0403535837443835    0.0964543047962234 C
  -0.0029339639376209    0.9565058929513776    0.1014218705182444 C
   0.7468425479699224    0.2078609113901693    0.0911291035262689 C
   0.4970077303048482    0.2930229895394171    0.0886677573303405 C
   0.7499340999961704    0.0409741889322365    0.0921663997828795 C
   0.7482077216278831    0.7161543550144619    0.1008134963768763 C
   0.7435139769201236    0.5381104877012279    0.0990965427075260 C
   0.5033756861168404    0.9548511653758235    0.0918681412097090 C
   0.5014085419363943    0.4581502143752713    0.0850053697166493 C
  -0.0131347921744554    0.4546414130550879    0.1146651693597527 C
  -0.0100713255713767    0.7944780424383948    0.1145187014370307 C
   0.5106560947408733    0.7946922665512741    0.0902917152185140 N
   0.2846447602575453    0.6236650327892226    0.1456943846963403 Sc
