Title
1.0
   9.8694509999999998    0.0000000000000000    0.0000000000000000
   0.0000000000000000    8.5490480000000009    0.0000000000000000
   0.0000000000000000    0.0000000000000000   20.0000000000000000
C N Hf
29 2 1
direct
   0.0568706699797627    0.0911973458909623    0.0834648545055778 C
   0.9317011712363731    0.1733179643038659    0.0853019409594479 C
   0.0560692422971381    0.9239870695383047    0.0830463694018068 C
   0.9313333540647725    0.3393029220466088    0.0887073401825778 C
   0.0565620158952827    0.5892806463144376    0.0856070825181338 C
   0.9320966655793708    0.6723764379654837    0.0874589817115913 C
   0.0572691193186257    0.4229054781117941    0.0875214419811816 C
   0.9313491508935140    0.8392302837722856    0.0854469706949844 C
   0.3057809939193228    0.0908074944262088    0.0871006546044077 C
   0.1817677887671659    0.1752749015273064    0.0858295638489127 C
   0.3043449512520041    0.9254725380360956    0.0881533513923580 C
   0.1835230417699137    0.3417176885575879    0.0890736053375776 C
   0.3040344933888636    0.5941164140642026    0.0969397338566193 C
   0.1800578633743125    0.6738880510509020    0.0871353039872246 C
   0.3106271656780527    0.4259613467524318    0.0963479181843854 C
   0.1799417031866907    0.8411194786956382    0.0854567449273836 C
   0.5561397999181108    0.0860669647011944    0.0946226467079707 C
   0.4314622651063664    0.1710993589633198    0.0924994873597906 C
   0.5551869328048770    0.9203316774113183    0.0991218865867080 C
   0.4338722836486612    0.3350765594490053    0.0996988644794710 C
   0.4266520710848807    0.8423692221205922    0.0984905984656994 C
   0.8073786713746449    0.0885210267294275    0.0867778690753578 C
   0.6822597317335473    0.1687021109239341    0.0923199007504398 C
   0.8068304143496986    0.9225898486363774    0.0884006336182015 C
   0.6824793641274861    0.3328946413831073    0.0995888114878104 C
   0.8086955384137184    0.5898604950069045    0.0985974960868594 C
   0.6912324360007790    0.6777865064964406    0.1130629220331045 C
   0.8056230400264655    0.4215393773912290    0.0966849063243936 C
   0.6837658663110903    0.8393697231655224    0.0999548399073605 C
   0.4179798625815541    0.6838601158339990    0.1111061654954305 N
   0.5589613339382140    0.4040960008154320    0.1139725913077466 N
   0.5477899979787472    0.5861263099180894    0.1781835222195197 Hf
