Title
1.0
   9.8694509999999998    0.0000000000000000    0.0000000000000000
   0.0000000000000000    8.5490480000000009    0.0000000000000000
   0.0000000000000000    0.0000000000000000   20.0000000000000000
C N V
29 2 1
direct
   0.0565478130706692    0.0904209091218494    0.0840894415652974 C
   0.9312995377274660    0.1733270361611563    0.0873344692626118 C
   0.0568200122186261    0.9230145794178169    0.0834353130047813 C
   0.9307589970493961    0.3401752993851384    0.0915978627471462 C
   0.0560503770073860    0.5893354501564382    0.0876664626960438 C
   0.9318983853332946    0.6725486988830265    0.0899693142998542 C
   0.0570235332381919    0.4231457943402306    0.0897125832070169 C
   0.9311934819842522    0.8399291807604407    0.0864199478964146 C
   0.3057108585671293    0.0884139774391354    0.0857813084444578 C
   0.1823078709645874    0.1742669264194416    0.0857560572494990 C
   0.3072068814587391    0.9230012676871484    0.0864957653488878 C
   0.1823308338634871    0.3402247160831304    0.0899078841867313 C
   0.3058101117009974    0.5894123396340492    0.0974647455114747 C
   0.1817571174635817    0.6712237604779173    0.0871687057465281 C
   0.1822482928325400    0.8380580620141358    0.0848731558870481 C
   0.5555012142397882    0.0874742570834121    0.0937854895709561 C
   0.4301802690757888    0.1705263087156236    0.0914619541182591 C
   0.4304838035138221    0.3361137269165212    0.1005167679329474 C
   0.4301355390987378    0.8392607266841541    0.0973867222171038 C
   0.8069878545645073    0.0897012251399259    0.0880706335100127 C
   0.6809497175799459    0.1702973111157305    0.0939724734123141 C
   0.8060293153503498    0.9243962651516724    0.0880930670105366 C
   0.6796389967905057    0.3352216503249361    0.1034569502917845 C
   0.8075656595428229    0.5913625604026854    0.1012760139126259 C
   0.8054672868327911    0.4228392701654111    0.1002308898866610 C
   0.6818616517686813    0.8415856991526610    0.0983492807141898 C
   0.4244909232240576    0.6772450515747628    0.1132365907867560 C
   0.5530111947609355    0.4102991691972686    0.1167958357130261 C
   0.6883625099326389    0.6817722245853347    0.1141665533844184 C
   0.5555464448520425    0.9220748738671164    0.0969593078103798 N
   0.3063170327971388    0.4228522896384293    0.0967608057616382 N
   0.5581454815951075    0.5907253923033027    0.1734826469126136 V
