Title
1.0
   9.8694509999999998    0.0000000000000000    0.0000000000000000
   0.0000000000000000    8.5490480000000009    0.0000000000000000
   0.0000000000000000    0.0000000000000000   20.0000000000000000
C N Ir
29 2 1
direct
   0.0563963608403893    0.0911507330681082    0.0845867599340481 C
   0.9310396881913412    0.1732474138464856    0.0865121684316665 C
   0.0557692266847716    0.9241401402676396    0.0847940229400836 C
   0.9303524842701070    0.3397232334461806    0.0897129491618273 C
   0.0562036670831585    0.5891717524646048    0.0867221051962802 C
   0.9320524800109501    0.6727999179429889    0.0905137357809817 C
   0.0567484723157571    0.4229798606874463    0.0879103744849899 C
   0.9314523366891296    0.8396195719668623    0.0885427977859664 C
   0.3055696648565787    0.0904424341234114    0.0868709515234733 C
   0.1815346032044618    0.1746152493509547    0.0857948293380500 C
   0.3043918739771103    0.9244606775156330    0.0883365164724589 C
   0.1832157194994955    0.3416600154149676    0.0882070864319821 C
   0.3046857275350905    0.5938041082444742    0.0946398621766282 C
   0.1799675673711103    0.6739668689520907    0.0873191134977334 C
   0.3096901567383900    0.4251969155328855    0.0934591537954274 C
   0.1798756839641708    0.8409457214086141    0.0861191376552239 C
   0.5556959533741290    0.0852609094425580    0.0941251134172038 C
   0.4313770400042959    0.1705354243426595    0.0909816618734826 C
   0.5550000554509462    0.9199659376793519    0.0992442174360049 C
   0.4340212104877477    0.3356055550470966    0.0963476788738016 C
   0.4268461969858957    0.8403734639370443    0.0972747378856643 C
   0.8069477837464397    0.0887935962631578    0.0887347182408088 C
   0.6814246874299209    0.1689254923458775    0.0930412408167065 C
   0.8069504908365301    0.9227123593660354    0.0916186463153979 C
   0.6806980004907544    0.3337559866736609    0.0989958784501220 C
   0.8091433467342853    0.5897191968018672    0.1024947972650179 C
   0.6951769636554919    0.6806637773149415    0.1203221499328554 C
   0.8053166482905426    0.4215699428368488    0.0979369997887598 C
   0.6836521172199040    0.8403315154772226    0.1035125678716356 C
   0.4199366261280084    0.6812681230582880    0.1049459629204492 N
   0.5573525545732642    0.4068342736297617    0.1067486720548106 N
   0.5511536113598380    0.5860058315502897    0.1693083922504925 Ir
