Title
1.0
   4.9440799999999996    0.0000000000000000    0.0000000000000000
   0.0000000000000000    8.5647549999999999    0.0000000000000000
   0.0000000000000000    0.0000000000000000   20.0000000000000000
C N Pd
12 2 1
direct
   0.2500000000000000    0.2053438090124957    0.1003536512710952 C
  -0.0009104873655771    0.2911250591445415    0.1004064217594854 C
   0.2500000000000000    0.0378015251186551    0.1003403267745805 C
  -0.0046464783287074    0.9559130186210438    0.1004046041436550 C
   0.7500000000000000    0.2081844035684916    0.1002639129512653 C
   0.5009104873655774    0.2911250591445415    0.1004064217594854 C
   0.7500000000000000    0.0417432691010672    0.1002586321163619 C
   0.7500000000000000    0.7192289056340102    0.1006222935742024 C
   0.7500000000000000    0.5396673123375891    0.1005931329133615 C
   0.5046464783287076    0.9559130186210438    0.1004046041436550 C
   0.5080864610751585    0.4567298047729245    0.1007073350414693 C
  -0.0080864610751589    0.4567298047729245    0.1007073350414693 C
  -0.0167712740428422    0.7969029706708080    0.1006416664840513 N
   0.5167712740428425    0.7969029706708080    0.1006416664840513 N
   0.2500000000000000    0.6183700688090581    0.1012279955418146 Pd
