Title
1.0
   4.9440799999999996    0.0000000000000000    0.0000000000000000
   0.0000000000000000    8.5647549999999999    0.0000000000000000
   0.0000000000000000    0.0000000000000000   20.0000000000000000
C N Cr
12 2 1
direct
   0.2469346597528765    0.2094980419887479    0.0983278836313234 C
  -0.0075427032858296    0.2949870129702761    0.0999731404320638 C
   0.2530852183692550    0.0400368097595468    0.0983030457768695 C
   0.0059350904615979    0.9556757520074788    0.0957046631628666 C
   0.7459478925213685    0.2090575693617413    0.0954436791847065 C
   0.4940592836011610    0.2938829724470779    0.0957561225071340 C
   0.7540644856819785    0.0405296267109318    0.0954189561752718 C
   0.7552696887695822    0.7126313396819942    0.1000651624939308 C
   0.7447055753355207    0.5369233750715682    0.1000769241302113 C
   0.5075668373803172    0.9545700496272590    0.0999476959412150 C
   0.5002400524741354    0.4608135783089484    0.0942738986285550 C
  -0.0002296801233212    0.7887251203533028    0.0942383978375459 C
  -0.0156534898109652    0.4561867478820249    0.1077481444548848 N
   0.5156289820885154    0.7933710920171341    0.1077347013473659 N
   0.2499881067838076    0.6247919118119701    0.1249675842960592 Cr
