Title
1.0
   4.9440799999999996    0.0000000000000000    0.0000000000000000
   0.0000000000000000    8.5647549999999999    0.0000000000000000
   0.0000000000000000    0.0000000000000000   20.0000000000000000
C N Fe
12 2 1
direct
   0.0007198815436791    0.2948590730927281    0.1021576811930464 C
   0.2506893840384131    0.0407750093954275    0.1006385969699311 C
   0.0013963588180905    0.9556167817170891    0.1040828343981974 C
   0.7513045993132036    0.2074159903100345    0.0998098237889698 C
   0.4992707166093501    0.2904938042155569    0.0971925439480783 C
   0.7531188988100782    0.0405610238429930    0.1006815035643438 C
   0.7447318323021619    0.7141267667777690    0.1005857541817878 C
   0.7410833527835967    0.5389958552167129    0.0995249037737968 C
   0.5040572418755719    0.9571419915772358    0.0977648131665692 C
   0.4977626331002697    0.4539654875348240    0.0936535990327309 C
  -0.0044607809191044    0.4617180680512001    0.1058321589113358 C
  -0.0076091819914483    0.7885099107971593    0.1093893381876905 C
   0.5073694049071715    0.7958930585086337    0.0929306082691480 N
   0.2498785557849967    0.2067275459659550    0.1001396488002977 N
   0.2606871030239701    0.6248806329966835    0.1035961918140801 Fe
