Title
1.0
   4.9440799999999996    0.0000000000000000    0.0000000000000000
   0.0000000000000000   17.1295089999999988    0.0000000000000000
   0.0000000000000000    0.0000000000000000   20.0000000000000000
C N Au
28 2 1
direct
   0.0014474749376429    0.1045966480431008    0.2974520074446866 C
   0.2503011531059179    0.1469517787108567    0.2981300315065449 C
   0.2503232690932999    0.2312122829064893    0.2998226650543111 C
  -0.0031029749546841    0.2712013115671833    0.3007480000101346 C
  -0.0005170258259495    0.6039047561465485    0.3016232415624763 C
   0.2503176282410209    0.7286592472160544    0.2991460865987201 C
   0.0004208744922124    0.8542309591234987    0.2971643354658356 C
   0.2503132850194862    0.8960494387983506    0.2967558682206605 C
   0.2503094351363274    0.9792531782808467    0.2965041900005915 C
   0.0002740553132320    0.7709565262740427    0.2984093495207014 C
   0.4991683959441427    0.1046022293631969    0.2974408227979428 C
   0.7503063168659247    0.1455649825016093    0.2980414314003849 C
   0.7503028445403020    0.2284891603593578    0.2997042513285229 C
   0.4997686710974409    0.0211547309952584    0.2966254465730354 C
   0.7503178556440774    0.3903958275316453    0.3029252881090281 C
   0.7503454473160226    0.4790928827763037    0.3032321947614647 C
   0.5037313568582084    0.2712040105832179    0.3006817112619080 C
   0.5011932964011308    0.6038988114409632    0.3015679717313733 C
   0.7503320885347763    0.7295215117996853    0.2991692195485335 C
   0.5002230204247999    0.8542339590085148    0.2971609180094487 C
   0.7503358944278427    0.8960191488889612    0.2966856802400591 C
   0.7503273926920103    0.9795498488742356    0.2964154616598092 C
   0.5003892454317138    0.7709500164558097    0.2983999020057761 C
   0.7503388192450484    0.6461371974001847    0.3008363358923768 C
   0.2503354682996591    0.6458912686965572    0.3007466203177632 C
   0.0008495526281725    0.0211555477051862    0.2966308556244954 C
   0.5132749040382097    0.5220205744749095    0.3026948112598878 C
   0.9873834136947189    0.5220221409866791    0.3028206669853883 C
   0.5185286705141854    0.3511355512248392    0.3023353036777124 N
  -0.0178618943841644    0.3511311985603807    0.3025546592644027 N
   0.2503290652272739    0.4401552733055295    0.3026346721659748 Au
