Title
1.0
   4.9440799999999996    0.0000000000000000    0.0000000000000000
   0.0000000000000000    8.5647549999999999    0.0000000000000000
   0.0000000000000000    0.0000000000000000   20.0000000000000000
C N Hf
11 4 1
direct
  -0.0025641002569056    0.2915371680608891    0.0940438936971101 C
   0.2500000000000000    0.0442365953531807    0.0827673659712373 C
  -0.0009354720384571    0.7941177906602302    0.0905461110652795 C
  -0.0011400368064414    0.9610533807360507    0.0810266625952914 C
   0.7500000000000000    0.2090065548190962    0.0834027999889003 C
   0.5025641002569055    0.2915371680608891    0.0940438936971101 C
   0.7500000000000000    0.0433966425817156    0.0774752152191412 C
   0.7500000000000000    0.7027114949184944    0.0968207422223734 C
   0.5009354720384571    0.7941177906602302    0.0905461110652795 C
   0.7500000000000000    0.5350844475750502    0.1254737506087715 C
   0.5011400368064416    0.9610533807360507    0.0810266625952914 C
   0.5090026104655059    0.4380924790681696    0.1223708857511255 N
  -0.0090026104655058    0.4380924790681696    0.1223708857511255 N
   0.2500000000000000    0.7242414871669688    0.1034949927551051 N
   0.2500000000000000    0.2123176742338014    0.0876531142401736 N
   0.2500000000000000    0.5594034663010133    0.1794489127766939 Hf
