Title
1.0
   9.8694509999999998    0.0000000000000000    0.0000000000000000
   0.0000000000000000    8.5490480000000009    0.0000000000000000
   0.0000000000000000    0.0000000000000000   20.0000000000000000
C N Ru
28 2 1
direct
   0.0559236714438359    0.0892862498997655    0.0865410113652162 C
   0.9306864492138166    0.1713535158493143    0.0875059507969814 C
   0.0567813762915762    0.9237603004056324    0.0870548482425782 C
   0.9326682653767029    0.3386956679310322    0.0869388930583959 C
   0.0563905757552579    0.5901761740380219    0.0856432713186264 C
   0.9318607372899866    0.6727403997818692    0.0874757789338489 C
   0.0569762339359463    0.4229643463861278    0.0851839882375937 C
   0.9306557077635014    0.8395648721563362    0.0880955785493794 C
   0.3083740121006827    0.0902064035986948    0.0918571526926678 C
   0.1829334207656267    0.1716580600607975    0.0874144487176854 C
   0.1816573691593096    0.3390309511203675    0.0867206458405748 C
   0.3033962455626921    0.5914148198849322    0.0943842032848682 C
   0.1810272994213354    0.6750407488465117    0.0878015283226337 C
   0.3043562970634924    0.4226782961729483    0.0926971584190399 C
   0.1821290651313093    0.8418421451644806    0.0887929342042992 C
   0.4333589225855277    0.1771296155960118    0.0979114312441379 C
   0.5543329841021568    0.9234548354564130    0.1012663368594118 C
   0.4300815192331591    0.3444493627592541    0.1014723119164646 C
   0.4256484776893436    0.6714033210455957    0.1079231544675840 C
   0.4299525225361124    0.8380348049971139    0.1010477374071418 C
   0.8040800181153105    0.0885511996692405    0.0913240248439935 C
   0.6800118135527418    0.1757799711442602    0.0979309196411116 C
   0.8045489786160350    0.9205692913399965    0.0918952977820923 C
   0.6845318747063220    0.3413814168730621    0.1044395280955844 C
   0.8086544444188066    0.5889513964756378    0.0926269492910054 C
   0.6830093571632472    0.6662138830891394    0.1020940042920967 C
   0.8095133327217733    0.4202492165230974    0.0930177547497553 C
   0.6780660976380917    0.8345652130589634    0.0983509918930475 C
   0.5568655751750611    0.0904524820087452    0.1004282429078993 N
   0.3061012475432950    0.9232750067181779    0.0927014736103220 N
   0.5585611079279473    0.5060010319484772    0.1424274490139896 Ru
