Title
1.0
   8.5490480000000009    0.0000000000000000    0.0000000000000000
   0.0000000000000000    8.5490480000000009    0.0000000000000000
   0.0000000000000000    0.0000000000000000   20.0000000000000000
C N Pd
19 5 1
direct
   0.9082890318619407    0.2068948449932563    0.0975149542944563 C
   0.9119256739690420    0.8011549732666485    0.0976373223667661 C
   0.1964266030880298    0.0822468441444870    0.0977235105268275 C
   0.0756275181062926    0.2007552127551856    0.0976807948036364 C
   0.1586127407486205    0.6488576980505375    0.0977678772361528 C
   0.0776690228291992    0.5006648953168724    0.0977950889047881 C
   0.1578402717322190    0.3508627019094473    0.0978923011857327 C
   0.0796617790597371    0.7988664691248343    0.0976419490985355 C
   0.3435312999600966    0.1650827115584828    0.0978711459009980 C
   0.4928082719978778    0.9180491819079287    0.0977786393809707 C
   0.3461290831900854    0.8358775702830780    0.0977747293529570 C
   0.7866406764909293    0.0863538075894731    0.0975365386583112 C
   0.6375539339147955    0.1687956614409203    0.0976398844461490 C
   0.7904073897642948    0.9198784952185863    0.0976530553272388 C
   0.8293802258064628    0.6516897433716223    0.0977734221674344 C
   0.8265440392169889    0.3566502488753746    0.0976045698323301 C
   0.6420404458754946    0.8370021495009703    0.0978373936498999 C
   0.3248450864703774    0.6716329362657157    0.0978093742624257 C
   0.6598855190595303    0.3353478632242814    0.0976228654521260 C
   0.4926578774768715    0.0875804955038472    0.0978105556998992 N
   0.9078068320934848    0.5027807133316285    0.0977671872661699 N
   0.3206003600262623    0.3263001763664176    0.0980669584663238 N
   0.6682993424771942    0.6738761016944064    0.0979445412281397 N
   0.1964177263039079    0.9154828646544375    0.0976729702922832 N
   0.4938112484802502    0.5021056396515732    0.0978873701994280 Pd
