Title
1.0
   9.8694509999999998    0.0000000000000000    0.0000000000000000
   0.0000000000000000    8.5490480000000009    0.0000000000000000
   0.0000000000000000    0.0000000000000000   20.0000000000000000
C N Cu
27 4 1
direct
   0.0563690414448408    0.0921455576268368    0.0843844984786276 C
   0.9312080113231295    0.1747422027000656    0.0844945262712927 C
   0.0581552435755556    0.9250730155729020    0.0841582655780176 C
   0.9291257885223196    0.3425860339125825    0.0854675928308837 C
   0.0581358439439269    0.5910201996854876    0.0848431531948208 C
   0.9337763321459344    0.6742585780090418    0.0842168527974728 C
   0.0570140131292549    0.4237222957006049    0.0866506474070810 C
   0.9333947554209339    0.8405815932083057    0.0844843248128771 C
   0.3058478566853085    0.0877392456378778    0.0906708121586591 C
   0.1831219392403412    0.1735492953422735    0.0875524658783304 C
   0.1832972359155887    0.3409757083526565    0.0909135715348110 C
   0.3035731567112907    0.5917679483399805    0.1085509582821109 C
   0.1828936703236391    0.6745963397095841    0.0905622081634506 C
   0.3080290700861902    0.4229776016235342    0.1021736896301035 C
   0.1822115512169630    0.8417706818054156    0.0881137263439305 C
   0.5563747198278458    0.0828511342987109    0.0964360248073790 C
   0.5550659216359718    0.9192688844861877    0.1054625361088729 C
   0.4337823177587514    0.3327762791861029    0.1012486014512454 C
   0.4246771052700560    0.8401640650494326    0.1134410220122648 C
   0.8063925108606426    0.0888351303279870    0.0863515804253491 C
   0.6799366168183771    0.1684851781886480    0.0900205155597644 C
   0.8077472628994530    0.9236718802751319    0.0879681279997694 C
   0.6771884374588556    0.3347650948229354    0.0925027097995329 C
   0.8071809616118083    0.5951295053210989    0.0911851790838037 C
   0.8020037165778315    0.4250102828496638    0.0888715390289039 C
   0.6855837758130477    0.8376173962761516    0.0993373394098499 C
   0.4110065823264767    0.6856554180125070    0.1342373689102498 C
   0.5541315137923559    0.4040412682233813    0.1021586324727863 N
   0.6935421725206398    0.6793587018423208    0.1042444684673141 N
   0.3062966870977270    0.9249186400545226    0.0923184173004510 N
   0.4295297211307398    0.1660552642102799    0.0955655652226972 N
   0.5630454669142082    0.5841355793477896    0.1670880785773132 Cu
