Title
1.0
   9.8694509999999998    0.0000000000000000    0.0000000000000000
   0.0000000000000000    8.5490480000000009    0.0000000000000000
   0.0000000000000000    0.0000000000000000   20.0000000000000000
C N Ti
28 2 1
direct
   0.0563285889004827    0.0894391700825154    0.0905181757234690 C
   0.9309158575622845    0.1722223627262788    0.0900978779574490 C
   0.0563084992243630    0.9229304647499365    0.0905151954264113 C
   0.9331739832104157    0.3387447686538543    0.0910471272772271 C
   0.0571004239201901    0.5895066752290156    0.0917682823540910 C
   0.9331876585268926    0.6735705923514292    0.0910704885166026 C
   0.0570853868526170    0.4228555988887253    0.0917704736322241 C
   0.9309133258029586    0.8401090173341101    0.0901273369623827 C
   0.3063320378864592    0.0905148454717573    0.0941413038707445 C
   0.1805854950503810    0.1720831167513515    0.0925284756095546 C
   0.3063217247740991    0.9218395020298514    0.0941489043164145 C
   0.1806762000525354    0.3397764330668867    0.0933418718327519 C
   0.3047874396010780    0.5907177079394957    0.0971558346013423 C
   0.1806896680382556    0.6725846487742579    0.0933447544016459 C
   0.3048045755054630    0.4215863405324722    0.0971417846496854 C
   0.1805688261033519    0.8403079235068659    0.0925341416558464 C
   0.5535350715744783    0.0911970745790942    0.0956827865032549 C
   0.4295469326382982    0.1780121037414330    0.0971860199509254 C
   0.5535499524698838    0.9210461372956656    0.0957079874428135 C
   0.4295292453445505    0.8342813961491621    0.0972048020836334 C
   0.8053056976969966    0.0900522077689858    0.0902462501013234 C
   0.6802057450994250    0.1750260599135070    0.0927196025058418 C
   0.8053055646694558    0.9222889343749698    0.0902718184395792 C
   0.6847760271852186    0.3407794878262597    0.0935644634124405 C
   0.8092199909020380    0.5911224973803857    0.0917569834667205 C
   0.6848288071935971    0.6715006087753215    0.0936254969538190 C
   0.8091918318604607    0.4211553231436321    0.0917347126324757 C
   0.6802439809801611    0.8372756757912351    0.0927682815113686 C
   0.4267652445704533    0.3422780984393861    0.1012662242570751 N
   0.4267530341224172    0.6700117302664493    0.1012855244532999 N
   0.5645981826807476    0.5060584964657215    0.1346920174976272 Ti
