Title
1.0
   4.9440799999999996    0.0000000000000000    0.0000000000000000
   0.0000000000000000   17.1295089999999988    0.0000000000000000
   0.0000000000000000    0.0000000000000000   20.0000000000000000
C N Ti
28 3 1
direct
   0.0018774944261348    0.1042634528768495    0.2957350548749571 C
   0.2523954489077990    0.1462605193397333    0.2981007572287626 C
   0.2530919878688929    0.2294773154327354    0.3037423463708525 C
   0.0077837811313594    0.3525993424307358    0.3128787214790819 C
   0.0019468229287240    0.2711912840335361    0.3047709535890999 C
  -0.0058497441176808    0.5994804594004940    0.2907624942513139 C
   0.2497138280966367    0.7264312640754078    0.2939991779672956 C
   0.0016787332633017    0.8529045869265018    0.2927129904772764 C
   0.2512833314443736    0.8949739868038596    0.2929963729409258 C
   0.2515589073037702    0.9786829983930329    0.2934547578866781 C
   0.0020987519097710    0.7692475747323720    0.2929004391320880 C
   0.5019844483522413    0.1041772630258528    0.2960231277659087 C
   0.7516300744334935    0.1464205228367131    0.2969603207629019 C
   0.7515901162908986    0.2295557017015827    0.3008266162512006 C
   0.5016605079138263    0.0205855554122260    0.2939681385077725 C
   0.4971258797092806    0.3544419994833499    0.3148611728587312 C
   0.7590719652911011    0.4793611916009997    0.3020242620918539 C
   0.5030173986073614    0.2719131205825523    0.3062109436817263 C
   0.5048194499209395    0.6025866769474502    0.3004302265551757 C
   0.7514612340431235    0.7277109064842081    0.2942458980285980 C
   0.5004423887419333    0.8527429115622265    0.2933882675722567 C
   0.7510298342280420    0.8947791029553029    0.2929429822756613 C
   0.7514539578962844    0.9784492261750047    0.2932433368923503 C
   0.4994056865225951    0.7688129331184294    0.2944132718219348 C
   0.7507422325415557    0.6448573295200154    0.2957635984272539 C
   0.2497268443350578    0.6412541265344489    0.2939686444985106 C
   0.0015811512480554    0.0207432645501524    0.2937655147279545 C
   0.5302752492361601    0.5211958954975195    0.3173702602514875 C
   0.9873356348025248    0.5167532460222654    0.2725899306984376 N
   0.2499575829922605    0.3921759735234032    0.3262390339270431 N
   0.7556521801409982    0.3959916247062916    0.3111926765860897 N
   0.1792798395891914    0.5085296433147384    0.3600827096187707 Ti
