Title
1.0
   4.9440799999999996    0.0000000000000000    0.0000000000000000
   0.0000000000000000    8.5647549999999999    0.0000000000000000
   0.0000000000000000    0.0000000000000000   20.0000000000000000
C N Co
10 4 1
direct
   0.2500000000000000    0.2116200321171356    0.1003748341275589 C
  -0.0010392546008153    0.2979606450762963    0.1004591054833582 C
   0.2500000000000000    0.0379884465398224    0.1004067820396203 C
  -0.0009613141278672    0.9515982007616676    0.1005041050311661 C
   0.7500000000000000    0.2099571853644978    0.1003996383749949 C
   0.5010392546008154    0.2979606450762963    0.1004591054833582 C
   0.7500000000000000    0.0395752023458733    0.1004200609081908 C
   0.7500000000000000    0.7115394862770740    0.1007739407699553 C
   0.7500000000000000    0.5380896847471689    0.1007489423152808 C
   0.5009613141278672    0.9515982007616676    0.1005041050311661 C
   0.5080327541220702    0.4623013532031539    0.1005979423842050 N
  -0.0080327541220705    0.4623013532031539    0.1005979423842050 N
  -0.0080167213498459    0.7872815276153038    0.1006177322813021 N
   0.5080167213498458    0.7872815276153038    0.1006177322813021 N
   0.2500000000000000    0.6246275092955882    0.1004980311043393 Co
