Title
1.0
   8.5490480000000009    0.0000000000000000    0.0000000000000000
   0.0000000000000000    8.5490480000000009    0.0000000000000000
   0.0000000000000000    0.0000000000000000   20.0000000000000000
C N W
21 3 1
direct
   0.9083674479292114    0.2071707198521538    0.0945731875943557 C
   0.9112056419132308    0.7998606162834263    0.0944070456966953 C
   0.1979941524510699    0.0828919796815954    0.0942358359653736 C
   0.0762112689156100    0.2022617986057725    0.0949781999315893 C
   0.1579403664418339    0.6492680238560897    0.0959609502439760 C
   0.0769723176545047    0.5001685508610526    0.0962430587132506 C
   0.1574272441837491    0.3534043625248183    0.0971864210219614 C
   0.0788669274753003    0.7982827430736336    0.0942745389953998 C
   0.3469959742189465    0.1634767952430465    0.0961614059661609 C
   0.4938251481697749    0.9198971506051143    0.0968192334031974 C
   0.3454764394891272    0.8386055403040199    0.0962411524425695 C
   0.7864983728777636    0.0864394467696457    0.0953197796386012 C
   0.6371682782325926    0.1686715431371504    0.0969569738280806 C
   0.7890460176722516    0.9192399291003147    0.0955792107015533 C
   0.8298990644457329    0.6480665036110091    0.0959451881852701 C
   0.8279330269368060    0.3573342672442823    0.0955065788817708 C
   0.6391408881459406    0.8368302938202169    0.0978700001654679 C
   0.3271691568399597    0.3294977545766368    0.1009534298878029 C
   0.3253963751337040    0.6738603226365362    0.0984468434553449 C
   0.6592469080422297    0.3378715484084934    0.0996688732996716 C
   0.6633243216788354    0.6666976343182023    0.1010688638230114 C
   0.4941748885742370    0.0857905630328161    0.0963652103286286 N
   0.9100336078733279    0.5017127086541371    0.0954896308860968 N
   0.1972072344794890    0.9163799692665056    0.0941528771476687 N
   0.4878909302247578    0.5011092345333377    0.1293005097964817 W
