Title
1.0
   4.9440799999999996    0.0000000000000000    0.0000000000000000
   0.0000000000000000   17.1295089999999988    0.0000000000000000
   0.0000000000000000    0.0000000000000000   20.0000000000000000
C N Ir
28 3 1
direct
   0.0019217247175880    0.1046571249345688    0.2860268383693708 C
   0.2519875445123678    0.1467327277579341    0.2883157940431952 C
   0.2530063120204059    0.2300731727751933    0.2948833502890392 C
   0.0085245138309811    0.3530105881093194    0.3103553590198663 C
   0.0017641873066875    0.2715158629952981    0.2982140601738190 C
  -0.0080827222205796    0.6030329109144598    0.3063931730534986 C
   0.2468870982336833    0.7273205259615565    0.2955516457098875 C
  -0.0009462045035639    0.8533740646221826    0.2864063118429769 C
   0.2490646010552588    0.8954686285687316    0.2853476022609588 C
   0.2502429230586630    0.9790704023677447    0.2840653832143555 C
  -0.0020515183266512    0.7698124438301228    0.2907629050080564 C
   0.5014071825632537    0.1046242080730880    0.2861426416147682 C
   0.7520536018112632    0.1466396598583951    0.2875979251006356 C
   0.7531032290609939    0.2294641586441253    0.2929370245786297 C
   0.5005941788510729    0.0211234063563782    0.2841844428324675 C
   0.5001080013774231    0.3529427269305986    0.3112656401844033 C
   0.7497758393449849    0.4818190806698611    0.3179930335032324 C
   0.5049685397446531    0.2715660006535214    0.2986233398919780 C
   0.4999355074748864    0.6044342374126527    0.3133695431807030 C
   0.7474548468841643    0.7287108507665156    0.2938369507934129 C
   0.4983267407777976    0.8533348951539852    0.2869300700069560 C
   0.7490810487417006    0.8952861885725368    0.2850844390063221 C
   0.7502809645603639    0.9790006193019559    0.2838499791536648 C
   0.4971429551395722    0.7698634690065503    0.2918997990119932 C
   0.7461504672669725    0.6456802163923351    0.3022678449712358 C
   0.2461863173186623    0.6443260086451332    0.3057122858308109 C
   0.0006194735226006    0.0211077873889779    0.2840611237695067 C
   0.5175899749732209    0.5248351144938227    0.3357531054181065 C
   0.9866218831706229    0.5220169088530843    0.3089546387410181 N
   0.2546783622711310    0.3886282002269912    0.3223937060437427 N
   0.7546172295503043    0.3968285729832784    0.3146549716312195 N
   0.2338081959095199    0.4822502367790926    0.3887300717501199 Ir
