Title
1.0
   8.5490480000000009    0.0000000000000000    0.0000000000000000
   0.0000000000000000    8.5490480000000009    0.0000000000000000
   0.0000000000000000    0.0000000000000000   20.0000000000000000
C N Fe
20 4 1
direct
   0.9081289570979386    0.2087535986871119    0.0976100270913744 C
   0.9120924747932323    0.7999922752680865    0.0976803119979632 C
   0.1965217335462494    0.0832193158654248    0.0977632312837865 C
   0.0748727471156954    0.2025884606433359    0.0977516609664808 C
   0.1588708051646534    0.6479621860947044    0.0977817617305308 C
   0.0767636446890417    0.5016083296644508    0.0978484140772231 C
   0.1573846693639463    0.3524678819586134    0.0979235182403238 C
   0.0795410292669513    0.7978793792365663    0.0977176535877569 C
   0.4931892240045982    0.0868788295499745    0.0976955578735514 C
   0.3424476507405759    0.1661887269537496    0.0978673177209077 C
   0.4933649716923567    0.9160104309606105    0.0976834064148176 C
   0.3468178064860774    0.8328739433589729    0.0977252146701819 C
   0.7860249390578596    0.0871279939332615    0.0975640825076391 C
   0.6377028442514224    0.1691554637490383    0.0976173227426511 C
   0.7887563893252431    0.9194458402803890    0.0976340109856366 C
   0.8297961323510220    0.6505104327685657    0.0977564042808344 C
   0.8264337398247715    0.3586843197813111    0.0976552497554871 C
   0.6416462784047666    0.8346531153709592    0.0977262461845768 C
   0.3261007272761614    0.6681740180063048    0.0977672845045450 C
   0.6595488804859694    0.3400650771610630    0.0976534267322735 C
   0.9087704658424133    0.5038347328985717    0.0978071289862478 N
   0.3197701662471564    0.3301128499769457    0.0980432014082304 N
   0.6672875671111673    0.6698274557656781    0.0978419794404636 N
   0.1981908333290178    0.9153497216675697    0.0977355569353760 N
   0.4953873225316976    0.5014256203987535    0.0978550298811204 Fe
