Title
1.0
   4.9440799999999996    0.0000000000000000    0.0000000000000000
   0.0000000000000000   17.1295089999999988    0.0000000000000000
   0.0000000000000000    0.0000000000000000   20.0000000000000000
C N Nb
27 3 1
direct
  -0.0002123027543948    0.1057569938522767    0.2960368231848381 C
   0.2486107721589237    0.1484886909451031    0.2968773598531479 C
   0.2475332631950433    0.2331093489220814    0.3000361638909914 C
  -0.0037933296606713    0.2750949942612444    0.3040845881346095 C
  -0.0000225483176009    0.6003888412157129    0.3023055885210471 C
   0.2487466744888492    0.7267663569993678    0.2956256772401950 C
   0.0006151122656423    0.8531702884643168    0.2943725779619375 C
   0.2497484157634532    0.8954027377124225    0.2941266187154630 C
   0.2496867473342826    0.9795680912555464    0.2943827681873409 C
   0.0002696120719072    0.7689813974623767    0.2951038005076527 C
   0.4986670353246627    0.1059692659212483    0.2950267233140482 C
   0.7496196158814141    0.1477556932475829    0.2956967109768603 C
   0.7493143943938958    0.2314958523001296    0.2972955835877935 C
   0.4992546090886461    0.0218055737722286    0.2942712644102676 C
   0.7475222143236639    0.3939995148398664    0.3033230022237303 C
   0.7468996645530092    0.4784283278685147    0.3039226237848163 C
   0.5000081523712722    0.2736174530425158    0.2970891192734378 C
   0.4965153050198808    0.6024331229671253    0.2953055142076830 C
   0.7498385215179982    0.7271696403411999    0.2944020036854431 C
   0.4986185559332203    0.8529935418765967    0.2937811934515628 C
   0.7495643836152509    0.8951909244576421    0.2939508445577410 C
   0.7495233640719660    0.9793454123613521    0.2941885617477308 C
   0.4984374894603487    0.7687256463120457    0.2940433860688846 C
   0.7496719316440512    0.6442924641111026    0.2953032828100047 C
  -0.0001538811854942    0.0216248883643199    0.2948379712540934 C
   0.4977718593092969    0.5208165453404821    0.2977262767113459 C
   0.0007569844715237    0.5189447818232882    0.3147304145026292 C
   0.5076842854264274    0.3538216719652839    0.2951650110098533 N
  -0.0127983218217932    0.3549550714477908    0.3158734404420875 N
   0.2480162038127897    0.6441682140455248    0.2979504917898320 N
   0.2940922162425376    0.4370606525037068    0.3482246139928846 Nb
