Title
1.0
   8.5490480000000009    0.0000000000000000    0.0000000000000000
   0.0000000000000000    8.5490480000000009    0.0000000000000000
   0.0000000000000000    0.0000000000000000   20.0000000000000000
C N Ni
19 5 1
direct
   0.9087089027417443    0.2070155192376153    0.0976729865576330 C
   0.9102643967078590    0.8006499082095159    0.0975267530781089 C
   0.1976563012227013    0.0854254520893985    0.0977742817529834 C
   0.0768384699827528    0.2025233440857413    0.0977408439374784 C
   0.1567890084742000    0.6508362979076283    0.0977863972676164 C
   0.0750434932567645    0.5020561028768169    0.0977833484001236 C
   0.1586937793387727    0.3574646564029103    0.0977543781490301 C
   0.0791990674869512    0.7989657976742806    0.0976412735416236 C
   0.4945121599477175    0.0858225543524495    0.0977585483417400 C
   0.3481829253148273    0.1677126518408316    0.0977830028610954 C
   0.4938756219337568    0.9131755777326399    0.0977318094021925 C
   0.3446674841210033    0.8314170279824636    0.0978542033505506 C
   0.7884716137911595    0.0876974103142957    0.0975984385081912 C
   0.6410009356246750    0.1689417120367227    0.0977808315714224 C
   0.7891668250157733    0.9182407132934246    0.0975220887327175 C
   0.8268723241449192    0.6508591482144384    0.0976750863201763 C
   0.8239702140510173    0.3559443622530817    0.0978236383125620 C
   0.6418745198069210    0.8327393615391459    0.0976737353075368 C
   0.3263327633891552    0.3363011446583040    0.0977340956334731 C
   0.9044992381490357    0.5034398444394173    0.0978401830768069 N
   0.3200388326720394    0.6717099783338608    0.0979259763409255 N
   0.6625404804103621    0.3341605111617829    0.0979717734851311 N
   0.6667066573335111    0.6691368864952333    0.0977765910476530 N
   0.1983843540169690    0.9149543992132532    0.0977837184876955 N
   0.4911216310654055    0.4975996376547677    0.0977910165355055 Ni
