Title
1.0
   9.8694509999999998    0.0000000000000000    0.0000000000000000
   0.0000000000000000    8.5490480000000009    0.0000000000000000
   0.0000000000000000    0.0000000000000000   20.0000000000000000
C N Sc
26 4 1
direct
   0.0558047232417455    0.0904578217815228    0.0899391153517082 C
   0.9309987851342935    0.1731382637358721    0.0917355292781796 C
   0.0578576125012539    0.9236150462677580    0.0900731699830150 C
   0.9327183911496538    0.3407605991968397    0.0920399087369681 C
   0.0573688435128312    0.5901747328465735    0.0892353045419502 C
   0.9335992699889897    0.6744377395495019    0.0921557551342176 C
   0.0572560143890863    0.4230116004973352    0.0891838612252391 C
   0.9328167941071324    0.8407416969995632    0.0920367752372297 C
   0.3065190395565534    0.0877039278755879    0.0930252560223063 C
   0.1810544929180410    0.1716106793412332    0.0904839164075755 C
   0.1809994915314019    0.3386098564621323    0.0901199314732503 C
   0.3052727802734390    0.5891691020781705    0.0925827704717624 C
   0.1813589732175991    0.6735488317128709    0.0896068006636098 C
   0.3055657930540330    0.4212477534371941    0.0941227134755867 C
   0.1816232169332930    0.8395472721754115    0.0900729807265175 C
   0.5552326693111557    0.0895705971621281    0.1009040848429270 C
   0.4290121701954074    0.1734060093840050    0.0986703623343754 C
   0.5547593642670815    0.9186754102988876    0.1000904469732459 C
   0.4286864469849025    0.8349282782817119    0.0965801494718649 C
   0.8052236387072476    0.0897934154951741    0.0947820630811716 C
   0.6809634115890328    0.1760127233610234    0.1008895220000871 C
   0.8063854810911529    0.9229095997372825    0.0949032742113369 C
   0.6851974041708691    0.3418414355700867    0.1062647363769707 C
   0.8101012251784976    0.5936033047722932    0.0985129897459800 C
   0.8084884875979343    0.4240131575046194    0.0987388910299890 C
   0.6831187848870559    0.8344623056756831    0.1003436131929018 C
   0.4247115824865745    0.3364896499383814    0.1026290519355901 N
   0.6895945334080267    0.6735599532556517    0.1055259762331239 N
   0.4244389458579927    0.6755155132707248    0.0979695833863877 N
   0.3071981672505013    0.9225316215568495    0.0921636153076681 N
   0.5492084655072295    0.5057871007779428    0.1455828511472993 Sc
