Title
1.0
   9.8694509999999998    0.0000000000000000    0.0000000000000000
   0.0000000000000000    8.5490480000000009    0.0000000000000000
   0.0000000000000000    0.0000000000000000   20.0000000000000000
C N Ru
25 6 1
direct
   0.0557892698599062    0.0914161886339830    0.0862413384527850 C
   0.9311082856146484    0.1746330922792361    0.0868509466950320 C
   0.0571157733981534    0.9233528265600595    0.0858455965679896 C
   0.9302369961221494    0.3415357877137205    0.0897967731551365 C
   0.0566910155953123    0.5915031933240233    0.0882047829922291 C
   0.0561898228797487    0.4239330021653766    0.0895961709830320 C
   0.9326713406250047    0.8399330068102282    0.0869592126973500 C
   0.3062250383678087    0.0890100245851483    0.0898457544011720 C
   0.1821670419412670    0.1738711587055369    0.0888967674200082 C
   0.1825969637581763    0.3410847868970290    0.0914367239031065 C
   0.3038358143875395    0.5914732130939104    0.0995243671793310 C
   0.1799856237049992    0.6744952837565289    0.0899835743924486 C
   0.3101934312467098    0.4227576313870728    0.0982066253095484 C
   0.1814645857824581    0.8421669576934729    0.0883244829613663 C
   0.5560127879249563    0.0849786249811314    0.0936723760685158 C
   0.5546477838062183    0.9179689449052115    0.0979981979820149 C
   0.4321996602963161    0.3322238759334618    0.1013112969119074 C
   0.4261843605290871    0.8394076778292792    0.1008530860760853 C
   0.8064626913854512    0.0886880642567145    0.0865340216148348 C
   0.6799943173220417    0.1691780067318241    0.0906778188707340 C
   0.8083505529303315    0.9226232277631536    0.0880300065871245 C
   0.6799671647450852    0.3350806181281585    0.0986543033608630 C
   0.8093209640146504    0.5936970752583830    0.0982364299161455 C
   0.8033326831819438    0.4254055350484993    0.0961135779835915 C
   0.6841071857574662    0.8393697877549631    0.0974798310249644 C
   0.4148842877470298    0.6843376063666849    0.1136037615900360 N
   0.5553644658894390    0.3995951931812042    0.1137485013821102 N
   0.6968480377401082    0.6816878198531098    0.1101550294289306 N
   0.3050220446613600    0.9253456591641102    0.0904458622568277 N
   0.4299559216238916    0.1665655786357726    0.0935395509004585 N
   0.9328718632792171    0.6730472147855083    0.0885911776670436 N
   0.5578412238815310    0.5898793358175053    0.1663170532672932 Ru
