Title
1.0
   4.9440799999999996    0.0000000000000000    0.0000000000000000
   0.0000000000000000    8.5647549999999999    0.0000000000000000
   0.0000000000000000    0.0000000000000000   20.0000000000000000
C Ag
15 1
direct
   0.2500000000000000    0.2079924719584340    0.0930961713122746 C
  -0.0013065032900329    0.2905575987375767    0.0961730597841820 C
   0.2500000000000000    0.0424622397814789    0.0898537621173161 C
   0.0000457868485166    0.7918572873498875    0.0956144979158725 C
   0.0008429880413927    0.9586442059743255    0.0895114900496729 C
   0.7500000000000000    0.2055043627554632    0.0911632163515750 C
   0.5013065032900327    0.2905575987375767    0.0961730597841820 C
   0.7500000000000000    0.0397161410011973    0.0876104501092559 C
   0.7500000000000000    0.7114309233302546    0.0964510104266407 C
   0.4999542131514834    0.7918572873498875    0.0956144979158725 C
   0.7500000000000000    0.5460298796719065    0.1004668729083774 C
   0.4991570119586074    0.9586442059743255    0.0895114900496729 C
   0.5192049428233179    0.4526636677452743    0.1050473558986646 C
  -0.0192049428233180    0.4526636677452743    0.1050473558986646 C
   0.2500000000000000    0.7168519782365309    0.1049841921743023 C
   0.2500000000000000    0.5425664836506072    0.1861935173034816 Ag
