Title
1.0
   9.8694509999999998    0.0000000000000000    0.0000000000000000
   0.0000000000000000    8.5490480000000009    0.0000000000000000
   0.0000000000000000    0.0000000000000000   20.0000000000000000
C N Cu
26 4 1
direct
   0.0558025640286840    0.0903531726698905    0.0960881231363342 C
   0.9306749739852610    0.1727726248766911    0.0969711706889309 C
   0.0575220680529759    0.9241038198076267    0.0961874556386398 C
   0.9331840763140432    0.3400026117079401    0.0963713008893856 C
   0.0571430541964788    0.5902673693533621    0.0956410694815620 C
   0.9339366958839534    0.6751303166073855    0.0965467712204261 C
   0.0574279118201009    0.4231720146106161    0.0955850819259138 C
   0.9323880452961955    0.8411783718636703    0.0964402127576913 C
   0.3068475160164578    0.0882936047343340    0.0956688282086127 C
   0.1809015309888747    0.1716076524328602    0.0953255533929380 C
   0.1810733493343351    0.3385117310737246    0.0953762453656863 C
   0.3031028667931696    0.5894840695801956    0.0960867282006098 C
   0.1805732731279954    0.6742359798346046    0.0954499799020309 C
   0.3046010167903474    0.4223937508060316    0.0947946837095947 C
   0.1813042482528022    0.8403499401693879    0.0961026761352623 C
   0.5545620212050196    0.0894207503238141    0.0976885421005467 C
   0.4299697188132019    0.1758072907163109    0.0953845419411759 C
   0.5542152122759305    0.9178265736044378    0.0976795663667530 C
   0.4284274201563516    0.8328879908159540    0.0978397381139653 C
   0.8046174087481580    0.0897924648904313    0.0980408586158274 C
   0.6796238633017163    0.1771000882210431    0.0996555169252953 C
   0.8054371015544176    0.9223056638803561    0.0973052314075864 C
   0.6866210066530360    0.3424287460838911    0.1031885243014601 C
   0.8111007023008660    0.5931492732773381    0.0970635646196438 C
   0.8097485492937039    0.4249641923171517    0.0982462777174511 C
   0.6818783104584878    0.8321979931139117    0.0972533636521710 C
   0.4256051868479434    0.3397736220807501    0.0919957717767842 N
   0.6895140033667021    0.6706422647609640    0.0955408251457666 N
   0.4226055946996371    0.6735712231067952    0.0999179077876166 N
   0.3070216369712176    0.9230066839306857    0.0962861392666140 N
   0.5557040724719429    0.5041431487478566    0.0992427496077604 Cu
