Title
1.0
   9.8694509999999998    0.0000000000000000    0.0000000000000000
   0.0000000000000000    8.5490480000000009    0.0000000000000000
   0.0000000000000000    0.0000000000000000   20.0000000000000000
C N V
29 2 1
direct
   0.0565414796935086    0.0913092150262661    0.0834988134534910 C
   0.9313231787788299    0.1734758964914946    0.0856360240400873 C
   0.0558846029292640    0.9240789593717057    0.0830267717981712 C
   0.9306319749461673    0.3396351636935690    0.0892956993698899 C
   0.0566717289105634    0.5892150852866986    0.0859416007373423 C
   0.9323780986081511    0.6725588342078793    0.0879182472734693 C
   0.0569578887903383    0.4229437373628772    0.0878597699244948 C
   0.9314091448988401    0.8395372222734618    0.0855601845865401 C
   0.3058075241722186    0.0904283962162620    0.0872807754347500 C
   0.1817538270379738    0.1747761904374145    0.0858247890476393 C
   0.3045810236999548    0.9244955311992217    0.0888162203584972 C
   0.1834354941509512    0.3415947145676839    0.0891681261855773 C
   0.3045808451817203    0.5939872454945423    0.0975726229198952 C
   0.1803997077734089    0.6738762605719120    0.0874121008815308 C
   0.3099825674203906    0.4254124592862685    0.0963501877549618 C
   0.1799925227188414    0.8408737995600419    0.0857246844639501 C
   0.5557326409911596    0.0854499068126669    0.0946551675580594 C
   0.4313682525647876    0.1706818609211274    0.0922429309923281 C
   0.5551522980952033    0.9197784467114115    0.0997288662339564 C
   0.4340948233309093    0.3354640526738391    0.0993056405485788 C
   0.4263513439767911    0.8405238779296033    0.0997159332536217 C
   0.8069729158749929    0.0889775755680808    0.0872417492401649 C
   0.6814877668930960    0.1689882346988612    0.0926889861345174 C
   0.8066994608737978    0.9230234937397069    0.0887497439310851 C
   0.6805874753228779    0.3335983514152219    0.1001763375135812 C
   0.8090253577614106    0.5900868901564821    0.0996234445309440 C
   0.6926057595281286    0.6788212556229489    0.1146043686811711 C
   0.8052563422153146    0.4218093170005945    0.0975624603405567 C
   0.6838251209717474    0.8398827324054375    0.1007331198749186 C
   0.4181457166597787    0.6822034944410543    0.1117971452017083 N
   0.5574581105147265    0.4055158144788642    0.1123365315421333 N
   0.5525440047141631    0.5872419843768096    0.1676259561924215 V
