Title
1.0
   9.8694509999999998    0.0000000000000000    0.0000000000000000
   0.0000000000000000    8.5490480000000009    0.0000000000000000
   0.0000000000000000    0.0000000000000000   20.0000000000000000
C N Ni
29 1 1
direct
   0.0556940521093495    0.0880984141736002    0.0932941886792665 C
   0.9316594767110754    0.1711350600142118    0.0936599129695675 C
   0.0563059253933039    0.9223467379974485    0.0933785056587411 C
   0.9344688428637379    0.3380282746314033    0.0936166767791798 C
   0.0567833341711972    0.5896547362747133    0.0933446728322046 C
   0.9338632785153194    0.6741863952865188    0.0937859924562897 C
   0.0569922212403758    0.4225249011528008    0.0932700798865740 C
   0.9314761276173474    0.8404649113007364    0.0938001393488729 C
   0.3057723933400230    0.0905710867470980    0.0946670497901322 C
   0.1802896191849544    0.1711601530262466    0.0936924739142401 C
   0.3066975901699054    0.9221986978012905    0.0946490981917931 C
   0.1793462515880774    0.3371529405176563    0.0936524038052641 C
   0.3033768180348220    0.5893233181196053    0.0948595401111775 C
   0.1803803469804640    0.6728323650499424    0.0937219328864956 C
   0.3022997534531683    0.4187911611519172    0.0949275912332497 C
   0.1812786452427760    0.8397083949371690    0.0937490921589758 C
   0.5556670072927095    0.0932753104517967    0.0961074803469238 C
   0.4281330663394175    0.1798383274258888    0.0958208793231217 C
   0.5554340329488885    0.9244084366519584    0.0961159872656508 C
   0.4281229525413990    0.6682808519731704    0.0962182673353332 C
   0.4302232384548783    0.8360067442561843    0.0957103077145355 C
   0.8053910383926537    0.0898937826294518    0.0946512178231588 C
   0.6821863283383784    0.1789627329473820    0.0957874844864722 C
   0.8054949152529775    0.9218525459553303    0.0947481158904921 C
   0.6867501514525238    0.3462440595663567    0.0964985891090861 C
   0.8116590816204666    0.5904882027392147    0.0950680148754587 C
   0.6847782053566608    0.6667993804416739    0.0966699866230421 C
   0.8127942244043685    0.4218787011323655    0.0949236279467177 C
   0.6809169830105193    0.8348508750786844    0.0959979025994619 C
   0.4226344953940844    0.3419400323508030    0.0963184760253652 N
   0.5562646025841856    0.5079774682173940    0.0982593119331971 Ni
