Title
1.0
   9.8694509999999998    0.0000000000000000    0.0000000000000000
   0.0000000000000000    8.5490480000000009    0.0000000000000000
   0.0000000000000000    0.0000000000000000   20.0000000000000000
C N Ta
27 4 1
direct
   0.0560020265933996    0.0914944917443674    0.0828363314586772 C
   0.9304625172214586    0.1754468308514890    0.0835830307863427 C
   0.0580996167822877    0.9243867656405982    0.0840712258020785 C
   0.9287150901072375    0.3426068340732057    0.0847195037841513 C
   0.0570031662938005    0.5906706508296055    0.0826517926338824 C
   0.9324124752087607    0.6739392621011995    0.0873470546584225 C
   0.0559678215136996    0.4234541858843990    0.0830268104968129 C
   0.9333684393332671    0.8414228948307402    0.0875179563798536 C
   0.3055542861158337    0.0878138070758218    0.0876010111992787 C
   0.1819913193381588    0.1728452265039045    0.0841860259752755 C
   0.1816955185927511    0.3392308573012038    0.0849982988352854 C
   0.3042601790650358    0.5882377088838452    0.0984068676033325 C
   0.1823798281798327    0.6730323486939075    0.0862826059190202 C
   0.3082358162113173    0.4205298467492821    0.0949228942891894 C
   0.1827133685215034    0.8408292451613646    0.0860808520357855 C
   0.5558046179972213    0.0864920693702102    0.0953142216542942 C
   0.5555923456417549    0.9210864295479715    0.1014799109781917 C
   0.4292277887979262    0.3294354775050438    0.1021166542959046 C
   0.4271187667806311    0.8415350121080730    0.1038603988094965 C
   0.8060925101498404    0.0904964687393927    0.0864017751485644 C
   0.6797919536599945    0.1716054814674070    0.0916082670639622 C
   0.8082354267635040    0.9253726954898145    0.0908835618551159 C
   0.6793867373524151    0.3350992217955043    0.0991984669189908 C
   0.8095575886370180    0.5942291367282141    0.0982048479811119 C
   0.8009136456324032    0.4264231071120246    0.0936767229451814 C
   0.6854735223220882    0.8432722920467980    0.1031998797702128 C
   0.4172682280574541    0.6810642063319153    0.1187853749901866 C
   0.5524627221974281    0.3954236388349108    0.1220135444137379 N
   0.6978730880977095    0.6845790718264482    0.1199496405853122 N
   0.3071264187170047    0.9252097206653218    0.0899339769954754 N
   0.4292303370096380    0.1672074152270040    0.0941429912864857 N
   0.5596218331076316    0.5857735988790141    0.1766725024504038 Ta
