Title
1.0
   9.8694509999999998    0.0000000000000000    0.0000000000000000
   0.0000000000000000    8.5490480000000009    0.0000000000000000
   0.0000000000000000    0.0000000000000000   20.0000000000000000
C N Ru
27 4 1
direct
   0.0560468645287837    0.0915378153083302    0.0842075164616505 C
   0.9309930446393310    0.1746695250764899    0.0851701700843368 C
   0.0578077705793642    0.9242211373795234    0.0840200335545327 C
   0.9293883632778186    0.3423959403657472    0.0882137167959336 C
   0.0568759043029209    0.5908527884158901    0.0860833380331126 C
   0.9324860976159474    0.6739872877360961    0.0875945525581794 C
   0.0562132937036065    0.4232153453434161    0.0874998611674428 C
   0.9331867878342675    0.8407493732586973    0.0860536026826830 C
   0.3059664341804009    0.0881200272262215    0.0889000438490258 C
   0.1823582057526887    0.1728198495715779    0.0867841558396706 C
   0.1824849558577208    0.3394291218449261    0.0897906008999095 C
   0.3044469921574685    0.5889524624128506    0.1014227703495222 C
   0.1821268857567463    0.6741050515667523    0.0890996106729301 C
   0.3077917580208457    0.4211789580341076    0.0990991130538414 C
   0.1823058191447524    0.8409852467274171    0.0868417997675514 C
   0.5570274737359583    0.0848749660419095    0.0943716301529495 C
   0.5557196119665282    0.9213929327109561    0.1009526713243439 C
   0.4317090823505699    0.3313063991517845    0.1025892359027678 C
   0.4272143505169935    0.8408444296242091    0.1048275047261359 C
   0.8061301386815654    0.0898023508615662    0.0857546842678917 C
   0.6796860957323826    0.1704095469345375    0.0901102018795333 C
   0.8077814624535211    0.9243471322468719    0.0882234878430244 C
   0.6788513191299194    0.3351973264397072    0.0982596005944121 C
   0.8075549941018781    0.5942501105187022    0.0972007496343819 C
   0.8018931462552024    0.4251837890569842    0.0953563357506613 C
   0.6850560153927246    0.8406266418211414    0.0994463008223333 C
   0.4176189199511633    0.6821457894077925    0.1195442010514936 C
   0.5539696461503760    0.3998789050642129    0.1143004015766814 N
   0.6942234890902834    0.6827318395548079    0.1114177826210077 N
   0.3062610612901717    0.9253409962430540    0.0900994894566545 N
   0.4291393368968745    0.1672019865737782    0.0938822666259018 N
   0.5593236789512307    0.5874909274799426    0.1685575699995197 Ru
