Title
1.0
   4.9440799999999996    0.0000000000000000    0.0000000000000000
   0.0000000000000000    8.5647549999999999    0.0000000000000000
   0.0000000000000000    0.0000000000000000   20.0000000000000000
C V
15 1
direct
   0.2500000000000000    0.2066053748396542    0.0906114907701407 C
  -0.0017455226931882    0.2883549720035550    0.0957546664768723 C
   0.2500000000000000    0.0414519246728198    0.0844647739907100 C
  -0.0019213558341347    0.7952029204699949    0.0977064359856209 C
  -0.0015127766173194    0.9588100748266166    0.0852066534389722 C
   0.7500000000000000    0.2069198303955131    0.0866880644139596 C
   0.5017455226931884    0.2883549720035550    0.0957546664768723 C
   0.7500000000000000    0.0416233207429104    0.0820769388725044 C
   0.7500000000000000    0.7098338533081735    0.1039487218536688 C
   0.5019213558341350    0.7952029204699949    0.0977064359856209 C
   0.7500000000000000    0.5405213819643202    0.1116189589855917 C
   0.5015127766173196    0.9588100748266166    0.0852066534389722 C
   0.5077730906999613    0.4482312978448905    0.1136386961309471 C
  -0.0077730906999615    0.4482312978448905    0.1136386961309471 C
   0.2500000000000000    0.7227744985753950    0.1107413479391688 C
   0.2500000000000000    0.5490712852110980    0.1677487991094383 V
