Title
1.0
   4.9440799999999996    0.0000000000000000    0.0000000000000000
   0.0000000000000000   17.1295089999999988    0.0000000000000000
   0.0000000000000000    0.0000000000000000   20.0000000000000000
C N Zr
30 1 1
direct
   0.0009989650371249    0.1043103211736616    0.2806043343907256 C
   0.2511911397035657    0.1457502606648685    0.2858947955411463 C
   0.2513040645195720    0.2276054139873538    0.2992773876955382 C
   0.0021559063374906    0.3485044182475976    0.3248921325021765 C
   0.0000512528998713    0.2683357123978728    0.3060889042433612 C
  -0.0022795035982301    0.6075421296071916    0.3102864936937700 C
   0.2507421462268229    0.7296586924426463    0.2890108320657320 C
   0.0008687818841429    0.8541988655619319    0.2749005331854084 C
   0.2506379027613619    0.8961004551121017    0.2732327462811162 C
   0.2508238938797497    0.9795006550088158    0.2728476591259990 C
   0.0007962544381271    0.7711439451187830    0.2821431978497910 C
   0.5011294476844588    0.1042634058707002    0.2806347960683825 C
   0.7510385929724970    0.1457457418238523    0.2850325340838185 C
   0.7512357850206177    0.2277205000366991    0.2972081250898312 C
   0.5009508295903260    0.0212280432565612    0.2742301383050466 C
   0.5009247599659249    0.3484343828846241    0.3254565121952138 C
   0.7515348986506019    0.3940673037842791    0.3310710858765405 C
   0.7497293251599808    0.4806518562720794    0.3329267766805702 C
   0.5025343208776797    0.2685036684608258    0.3063798387012188 C
   0.5034395315416476    0.6075682556602513    0.3138728734731738 C
   0.7499262524749386    0.7301792910580810    0.2868843307762107 C
   0.5003811824140670    0.8543660613617096    0.2751067406590064 C
   0.7507189132861781    0.8959733604411966    0.2728932712671396 C
   0.7508657406006335    0.9794334833244394    0.2725509192777927 C
   0.4999835527027168    0.7714033099451744    0.2826208783578095 C
   0.7494078023220945    0.6484206858821288    0.3002752286191516 C
   0.2511063915170525    0.6482422740278058    0.3052912752064672 C
   0.0008240923565624    0.0212510583862423    0.2741776762453444 C
   0.5107577240971196    0.5285651511548357    0.3376342309194382 C
   0.9888944487959697    0.5272761704467481    0.3273452686825559 C
   0.2515121151546191    0.3816612742129268    0.3401469621189553 N
   0.2226364887247237    0.4809448523860066    0.4016465208215220 Zr
