Title
1.0
   8.5490480000000009    0.0000000000000000    0.0000000000000000
   0.0000000000000000    8.5490480000000009    0.0000000000000000
   0.0000000000000000    0.0000000000000000   20.0000000000000000
C N Mn
19 5 1
direct
   0.9076700510524599    0.2064547221119654    0.0975665723127564 C
   0.9108094832169105    0.8003964687959715    0.0976121971801555 C
   0.1972296775501002    0.0832362119958431    0.0976960722595853 C
   0.0763484253354647    0.2019603460415555    0.0976466284362365 C
   0.1584248129408697    0.6492249737702189    0.0977621598624293 C
   0.0774359102458292    0.5005093772147312    0.0978071102761105 C
   0.1578048498510471    0.3509734638456872    0.0978376879901313 C
   0.0795030291557761    0.7988160422409122    0.0976680439836387 C
   0.3441304787058932    0.1650158593414034    0.0978571908491437 C
   0.4932071624409179    0.9185893418894957    0.0978185543186268 C
   0.3458185453649536    0.8359664586310561    0.0977785084678428 C
   0.7871926013842389    0.0870424001075799    0.0976133315787626 C
   0.6375782847804218    0.1696696383030631    0.0976771290049190 C
   0.7892688743482067    0.9192132333299153    0.0976388751609417 C
   0.8293158587531503    0.6511525495374679    0.0977372416613371 C
   0.8259469377168402    0.3565701006610918    0.0975979972229443 C
   0.6417219017097374    0.8370503036734875    0.0978030384973103 C
   0.3249880102809811    0.6721203528856691    0.0977749546334355 C
   0.6588985115806683    0.3362410630440349    0.0976249803854872 C
   0.4931831608364277    0.0868783896114334    0.0978645701187426 N
   0.9084046302709161    0.5023472281653439    0.0977732738809736 N
   0.3229080023434076    0.3269628142982167    0.0980333899105825 N
   0.6672421182741397    0.6715298831804056    0.0979046060873756 N
   0.1964470769356176    0.9155489552582378    0.0977356190443634 N
   0.4939336049250100    0.5013198220652272    0.0978752668761477 Mn
