Title
1.0
   9.8694509999999998    0.0000000000000000    0.0000000000000000
   0.0000000000000000    8.5490480000000009    0.0000000000000000
   0.0000000000000000    0.0000000000000000   20.0000000000000000
C N Fe
29 2 1
direct
   0.0563398310312157    0.0899325815989071    0.0847746857532917 C
   0.9313992091782293    0.1730549659074292    0.0855396244395895 C
   0.0572787931109782    0.9234190227232345    0.0855872917317806 C
   0.9312466738305211    0.3403078906099065    0.0876737538999872 C
   0.0570875861445049    0.5905735905517834    0.0870532049270897 C
   0.9322362294766144    0.6729689301934143    0.0894648066125263 C
   0.0570600687197396    0.4229630298829150    0.0867390033798513 C
   0.9320999347084721    0.8397416298710861    0.0877900252449277 C
   0.3059055705721304    0.0883132261669952    0.0895228520273593 C
   0.1823846749756635    0.1723479810801081    0.0866163958692255 C
   0.1820816423545132    0.3394968653970874    0.0883738222536811 C
   0.3048837910164691    0.5885474883989613    0.1001753511443438 C
   0.1823524532132225    0.6738114267255328    0.0899486183656548 C
   0.3063376530096237    0.4213586225073566    0.0973815408987898 C
   0.1821874630100782    0.8409152826249371    0.0884186364102227 C
   0.5553859855746864    0.0880871250612272    0.0940436429270087 C
   0.5543590091297312    0.9239586554305094    0.0991781228933486 C
   0.4302983207859347    0.3337879061932245    0.1028578864000891 C
   0.4278027264632442    0.8411859193894613    0.1028837500900375 C
   0.8061867709756586    0.0890632297717918    0.0873648819721073 C
   0.6803359155490718    0.1716584920821720    0.0919066585618019 C
   0.8066576522272328    0.9235939846353999    0.0899074808255921 C
   0.6821488033009224    0.3365278299320508    0.1000249627270927 C
   0.8081512049987986    0.5903938316245084    0.0986722577176576 C
   0.8064965441016992    0.4223047201210044    0.0957033328712307 C
   0.6818568898883308    0.8418039153847846    0.0999303590693866 C
   0.4214774404011721    0.6798578510661889    0.1155349053580908 C
   0.5555481522019323    0.4082670797724612    0.1151538494314720 C
   0.6892334663616988    0.6783110104564151    0.1123880454238313 C
   0.3060362135888365    0.9256281270975533    0.0913966461062025 N
   0.4293097838472408    0.1690114287575160    0.0940805997789894 N
   0.5574725462518411    0.5890523589840801    0.1595880048877565 Fe
