Title
1.0
   8.5490480000000009    0.0000000000000000    0.0000000000000000
   0.0000000000000000    8.5490480000000009    0.0000000000000000
   0.0000000000000000    0.0000000000000000   20.0000000000000000
C N Zr
20 4 1
direct
   0.9067167747820507    0.2076735371130732    0.0935849712113434 C
   0.9130886582213478    0.8020194328931788    0.0952062004745026 C
   0.1945410221147577    0.0815629741993403    0.0955657580294194 C
   0.0732294077345361    0.2006492367524623    0.0953667607487722 C
   0.1578677392939948    0.6479662256365953    0.0943922393808623 C
   0.0765273852466178    0.5003561763003244    0.0963824608491337 C
   0.1527754052948068    0.3492209677508933    0.0983689173726413 C
   0.0807552115296468    0.7977963925552003    0.0938239065652217 C
   0.4924531363507837    0.0865972269712469    0.0971015126533457 C
   0.3402784737137735    0.1620625446724925    0.0985201372044475 C
   0.4944095328903272    0.9176075667127480    0.0973470102845466 C
   0.3474650425725318    0.8347393900450457    0.0947192791985572 C
   0.7869178397190534    0.0893768731545787    0.0942442360436622 C
   0.6377262861139479    0.1701502453915174    0.0951521320049220 C
   0.7905252120538390    0.9208649563447013    0.0959284542359050 C
   0.8334849023169651    0.6533307313370942    0.0979994697649357 C
   0.8280317796024288    0.3593306064946572    0.0937400309429993 C
   0.6448470059111447    0.8380461878158475    0.0992469243290662 C
   0.3245751520064575    0.6715418934177920    0.0938321738847597 C
   0.6627084666234766    0.3389873725704294    0.0942128387511688 C
   0.9097300231159383    0.5044678516188177    0.0959934345214181 N
   0.3152350144842339    0.3243672215133622    0.1029674595130675 N
   0.6722948967434248    0.6738796685173776    0.1035995956232936 N
   0.1980346334257825    0.9143653656342829    0.0938076846284875 N
   0.4911929981381190    0.4978293545869549    0.1326014117835008 Zr
