Title
1.0
   9.8694509999999998    0.0000000000000000    0.0000000000000000
   0.0000000000000000    8.5490480000000009    0.0000000000000000
   0.0000000000000000    0.0000000000000000   20.0000000000000000
C N Ag
29 2 1
direct
   0.0565911183518839    0.0901291259447723    0.0877602362602695 C
   0.9313679140599038    0.1730605309254731    0.0900925223935982 C
   0.0569393125765485    0.9230921798770042    0.0872436476570086 C
   0.9308534529942687    0.3401626911773505    0.0930435179011600 C
   0.0560521675576051    0.5894796312406874    0.0900556255569257 C
   0.9316750552560000    0.6727431467358090    0.0921591101096150 C
   0.0571737501928615    0.4231135596949856    0.0913018156561558 C
   0.9313404670542972    0.8399106532850302    0.0896775524766118 C
   0.3058638472474761    0.0882462385209033    0.0877913452486253 C
   0.1823657063269799    0.1740747474110516    0.0883622440090627 C
   0.3074034262130176    0.9228613533909226    0.0876326743339963 C
   0.1823277130767270    0.3400156397409533    0.0906548635393940 C
   0.3077348133343558    0.5888210473381018    0.0925581036112915 C
   0.1817530270229977    0.6714772076669754    0.0885456197665881 C
   0.1825370438807750    0.8379515012965776    0.0872000039230379 C
   0.5557290351220366    0.0877696123767020    0.0935093227058623 C
   0.4305586580449213    0.1706109148305999    0.0913192560020449 C
   0.4309612346622053    0.3377497602942275    0.0970454662513933 C
   0.4318452627870641    0.8377276266213241    0.0926518193427715 C
   0.8069812725941560    0.0895468877730692    0.0905526041470842 C
   0.6806585410502805    0.1707646839986782    0.0944156305591147 C
   0.8062901723668242    0.9243474539463106    0.0905870452173656 C
   0.6792862695547954    0.3372825593797984    0.1007281580867357 C
   0.8059464683930710    0.5908780071579730    0.1002553309174353 C
   0.8056454759059121    0.4229089855670058    0.0989571252442035 C
   0.6811137846756583    0.8404935903569197    0.0975097073533493 C
   0.4288915180936478    0.6742606077026697    0.0980244834042584 C
   0.5531373103083909    0.4131919077572204    0.1083329555179156 C
   0.6867912863064163    0.6806586865779531    0.1093187259424359 C
   0.5559610332752816    0.9224272149641437    0.0943366082889242 N
   0.3063806173228091    0.4226806311896567    0.0931039373957545 N
   0.5514822443908369    0.5918076152591517    0.1909479411800268 Ag
