Title
1.0
   4.9440799999999996    0.0000000000000000    0.0000000000000000
   0.0000000000000000    8.5647549999999999    0.0000000000000000
   0.0000000000000000    0.0000000000000000   20.0000000000000000
C N Mn
12 3 1
direct
   0.2500000000000000    0.2125020962396832    0.0920725542637370 C
  -0.0051941456472615    0.2934791125749508    0.0931315452861846 C
   0.2500000000000000    0.0445748045792115    0.0901114650069385 C
   0.0041871661876940    0.7947328017566504    0.1010398010555927 C
   0.0001421303516308    0.9597388907310076    0.0902863310599490 C
   0.7500000000000000    0.2071414824035331    0.0865509296744844 C
   0.5051941456472617    0.2934791125749508    0.0931315452861846 C
   0.7500000000000000    0.0417583252890371    0.0860535927199829 C
   0.7500000000000000    0.7044257746246207    0.1039029250188960 C
   0.4958128338123061    0.7947328017566504    0.1010398010555927 C
   0.7500000000000000    0.5324961417548197    0.1022582815888106 C
   0.4998578696483694    0.9597388907310076    0.0902863310599490 C
   0.5129870048115871    0.4510486774033525    0.1030620928688054 N
  -0.0129870048115870    0.4510486774033525    0.1030620928688054 N
   0.2500000000000000    0.7248925964042695    0.1122096407896547 N
   0.2500000000000000    0.5342098137729018    0.1743130703964401 Mn
