Title
1.0
   9.8694509999999998    0.0000000000000000    0.0000000000000000
   0.0000000000000000    8.5490480000000009    0.0000000000000000
   0.0000000000000000    0.0000000000000000   20.0000000000000000
C N V
26 4 1
direct
   0.0547815258714483    0.0883473027192941    0.0905393702443638 C
   0.9301831297446252    0.1728373968060561    0.0879385920353191 C
   0.0566840969919174    0.9210677939669180    0.0909931630184844 C
   0.9322831970723040    0.3397780074567403    0.0885616495486099 C
   0.0558762434832370    0.5906196687485401    0.0925241701534415 C
   0.0558430719457866    0.4239795899703472    0.0918945911167045 C
   0.9312648367719196    0.8383824709926031    0.0896585257821959 C
   0.3062209589662949    0.0881541409862461    0.0964341954618005 C
   0.1802128782883560    0.1703250968891568    0.0942199488192189 C
   0.1801551674194924    0.3380208259808508    0.0951621627521003 C
   0.3049317927898554    0.5865718701817116    0.1010669050879869 C
   0.1809169671119088    0.6725259944517966    0.0951704584815575 C
   0.3035189499436540    0.4183822073621427    0.1016310223133354 C
   0.1826181911099184    0.8393601028021642    0.0938935892868305 C
   0.4287879110548752    0.1766744084437288    0.1000682507293744 C
   0.5538852614761858    0.9252973816690060    0.0959791265101134 C
   0.4294552210315064    0.6691484183866303    0.1071548321877730 C
   0.4309706400065421    0.8355180799949499    0.1006382630003736 C
   0.8042646037345315    0.0895684445152705    0.0872124904417870 C
   0.6789923858183592    0.1770171331392588    0.0879910650416305 C
   0.8056167216010997    0.9225048546594473    0.0883981674656424 C
   0.6825207244361996    0.3412237930099705    0.0858282347263551 C
   0.8077076840749801    0.5930555170721418    0.0886475812642869 C
   0.6842126886967560    0.6751243325915794    0.0920832889211336 C
   0.8085378007400329    0.4227297441527600    0.0862608250435235 C
   0.6785123636369806    0.8418879160677203    0.0909783236922455 C
   0.9327373893488141    0.6729524086162701    0.0903487055505136 N
   0.5536449356624186    0.0945928056493388    0.0948496329383281 N
   0.4252382332129324    0.3375738863489507    0.1080624498048955 N
   0.3055942275245799    0.9213868970854701    0.0956872290226903 N
   0.5769652004325047    0.5062665092829578    0.1310881895574329 V
