Title
1.0
   9.8694509999999998    0.0000000000000000    0.0000000000000000
   0.0000000000000000    8.5490480000000009    0.0000000000000000
   0.0000000000000000    0.0000000000000000   20.0000000000000000
C N Cr
28 3 1
direct
   0.0559501566116797    0.0892537251461980    0.0839839332910807 C
   0.9314861857817768    0.1733609955039888    0.0850705875727945 C
   0.0569472649072059    0.9221152468966681    0.0845103362905559 C
   0.9311204984992711    0.3403427307942642    0.0876085967718716 C
   0.0562464150046465    0.5911286577385909    0.0871947001551430 C
   0.0557810696919892    0.4241122957843524    0.0870100423888384 C
   0.9324050848809780    0.8380429200600974    0.0870415862961226 C
   0.3060501702838921    0.0889432481927179    0.0880947788862957 C
   0.1818681616022599    0.1726015627777673    0.0861238438793060 C
   0.1814364475108606    0.3397605218509279    0.0887034809353817 C
   0.3039118454041221    0.5883821809386732    0.1001371761106412 C
   0.1808348296810667    0.6742684378712549    0.0897107315741824 C
   0.3057943600740590    0.4212893763240738    0.0978462352239827 C
   0.1827345933500234    0.8406758088970037    0.0871672007511121 C
   0.5559684016920571    0.0885413803955478    0.0929665874331119 C
   0.5547668309862540    0.9233356399663358    0.0991237138878771 C
   0.4306080588664221    0.3335131908599345    0.1024926223541236 C
   0.4279078981659769    0.8406004071508381    0.1024519310135401 C
   0.8068648552977230    0.0886275202910220    0.0869843921066531 C
   0.6806415392410866    0.1716753485396316    0.0912459819306756 C
   0.8070035061521692    0.9225438464293585    0.0895645196345466 C
   0.6825042577994420    0.3378682963182219    0.0998074476152155 C
   0.8095474512157999    0.5921925148681745    0.1005248218854004 C
   0.8070575031502946    0.4236045538920193    0.0962610078819371 C
   0.6823361003013576    0.8418762251769981    0.1006690752503764 C
   0.4200486591325984    0.6805525373585798    0.1149373760520997 C
   0.5550321101432174    0.4070843117802372    0.1143516572884315 C
   0.6927645839903832    0.6794817729848555    0.1148104625191741 C
   0.3056814893630439    0.9250451595556585    0.0893212666720849 N
   0.4289929908117575    0.1684185652280858    0.0924592542921220 N
   0.9326648727246641    0.6731462785527370    0.0887420265126450 N
   0.5566808076819283    0.5878607418751866    0.1687576255426931 Cr
