Title
1.0
   8.5490480000000009    0.0000000000000000    0.0000000000000000
   0.0000000000000000    8.5490480000000009    0.0000000000000000
   0.0000000000000000    0.0000000000000000   20.0000000000000000
C N Ta
18 6 1
direct
   0.9087509222174376    0.2056494765600508    0.0972893218704386 C
   0.9106379705701343    0.8002453564475484    0.0972593708553839 C
   0.1961369177990342    0.0837922495612241    0.0975526225480814 C
   0.0760296179554342    0.2015376267589783    0.0974092056237573 C
   0.1549490240021009    0.6521799522682302    0.0977563784594088 C
   0.0778667792666122    0.5010091283286620    0.0977111081814336 C
   0.1543923568488285    0.3509745141861396    0.0977874029658664 C
   0.0785395452429798    0.7994239770330620    0.0974041604730940 C
   0.4934828029439484    0.0886549499921724    0.0977281849041783 C
   0.3431979218772173    0.1641699358469297    0.0979083395854446 C
   0.4922585069584918    0.9160719275872158    0.0976879956175290 C
   0.3436260712481070    0.8377391496891873    0.0978820956963616 C
   0.7890469865328298    0.0869819625000626    0.0972922015875152 C
   0.6423671586241742    0.1670267700734940    0.0976824578742806 C
   0.7892715835606956    0.9184630871098359    0.0972492069815442 C
   0.8316763551716120    0.6513064941118163    0.0975169398279608 C
   0.8300636251557207    0.3536827316972251    0.0976094266493013 C
   0.6430086377055139    0.8370567999134190    0.0975785361877423 C
   0.9067040737619483    0.5022807951925853    0.0976392005602690 N
   0.3174756319533328    0.3270044406544546    0.0982731251912749 N
   0.3176787711796318    0.6776044025691262    0.0982787325918937 N
   0.6687476153311719    0.3314286321450606    0.0981106289724767 N
   0.6702155634154342    0.6731740895248598    0.0979108623796062 N
   0.1967254321970206    0.9164463209039670    0.0975887044797543 N
   0.4925621284805804    0.5008852293446925    0.0995987899353836 Ta
