Title
1.0
   8.5490480000000009    0.0000000000000000    0.0000000000000000
   0.0000000000000000    8.5490480000000009    0.0000000000000000
   0.0000000000000000    0.0000000000000000   20.0000000000000000
C N Ni
17 7 1
direct
   0.9074639795991927    0.2057505076817265    0.0974189678665508 C
   0.9106952255852764    0.8010199725841355    0.0974575242411973 C
   0.1967250542507334    0.0833096054413322    0.0975473761844396 C
   0.0765843966521452    0.2005507456190473    0.0974900786582122 C
   0.1591332834807511    0.6512442816634693    0.0977899700785493 C
   0.0786378148165954    0.4999306876136011    0.0977903701348107 C
   0.1586514532198544    0.3501681537729363    0.0977570947163531 C
   0.0792218834729908    0.7987434023689122    0.0975458725667830 C
   0.3441212291054219    0.1672453889413464    0.0978257562296159 C
   0.4933893081507200    0.9174786794592699    0.0978164330002885 C
   0.3438034317283511    0.8353815537370809    0.0978531861914463 C
   0.7876211578777517    0.0871148006340394    0.0974423411015119 C
   0.6407318489186569    0.1703586461474089    0.0977507318112344 C
   0.7902349614055657    0.9187462462433261    0.0974745713544041 C
   0.8272231970649582    0.6513011832384723    0.0977323612245131 C
   0.8253278588883984    0.3533976902965952    0.0977047884534413 C
   0.6424054476872636    0.8359817983608695    0.0977467625107724 C
   0.4932802020417956    0.0895204622855383    0.0978890298451980 N
   0.9060874026972268    0.5020286267888348    0.0978131303749442 N
   0.3223296485611419    0.3272328373209364    0.0980373268143677 N
   0.3216765070882477    0.6761541652122822    0.0980479889828584 N
   0.6628550523868623    0.3322816182650617    0.0979641854268141 N
   0.6670482687765527    0.6720535834434407    0.0979599046202254 N
   0.1969023761162126    0.9150056011316200    0.0976182331217477 N
   0.4932610104273270    0.5027897617487169    0.0982310144897006 Ni
