Title
1.0
   9.8694509999999998    0.0000000000000000    0.0000000000000000
   0.0000000000000000    8.5490480000000009    0.0000000000000000
   0.0000000000000000    0.0000000000000000   20.0000000000000000
C N Mn
26 5 1
direct
   0.0562480250925072    0.0921434810560331    0.0877445758225363 C
   0.9310529868679702    0.1745204819135159    0.0890401330373916 C
   0.0575512284657592    0.9247562762504549    0.0870650462874501 C
   0.9296975937026359    0.3423506408485323    0.0914265923734638 C
   0.0571149572933721    0.5908972556709792    0.0881049459798344 C
   0.9325684117558303    0.6738442473619168    0.0897297166299773 C
   0.0566570765799877    0.4233922132767683    0.0898721250571710 C
   0.9330075569197315    0.8403813818030640    0.0887348253750336 C
   0.3063842832331994    0.0884504267019682    0.0898723433031366 C
   0.1830344465661394    0.1739886361460697    0.0891925914734501 C
   0.1836183046294194    0.3409769931490160    0.0909206250086810 C
   0.3066967913869069    0.5925374438817456    0.0965122620038511 C
   0.1815206392416839    0.6748542273836717    0.0889216216085141 C
   0.3104189374602470    0.4239888163597367    0.0957311972813204 C
   0.1811005069154294    0.8410973464864084    0.0879987756795555 C
   0.5563258855556722    0.0837910845139151    0.0946920013671112 C
   0.5547896201413109    0.9182367232179920    0.0990537585170005 C
   0.4342593758221185    0.3332262101984442    0.0980041911494792 C
   0.4266338935494881    0.8368174711888057    0.0983997084622500 C
   0.8061529378450167    0.0889533424294945    0.0892620050509084 C
   0.6794515214594528    0.1692947305425691    0.0922513080505916 C
   0.8075738436797019    0.9235119267776930    0.0904750607455089 C
   0.6780079394296212    0.3355743035555942    0.0978271573537298 C
   0.8068022018934801    0.5945376854371837    0.0979032045203152 C
   0.8019291663376891    0.4249577211971954    0.0966965451238352 C
   0.6850308684629595    0.8371259767613114    0.0991469685591774 C
   0.4201134369170670    0.6827723635620535    0.1070277926283628 N
   0.5537915321334563    0.4051793112828793    0.1065767983231614 N
   0.6915430725649941    0.6797270181440619    0.1088239493378560 N
   0.3059556492366279    0.9252653664371819    0.0894819465395054 N
   0.4297663754736452    0.1670109542459264    0.0927537984397616 N
   0.5548399333868871    0.5860839422178200    0.1764314289100953 Mn
