Title
1.0
   4.9440799999999996    0.0000000000000000    0.0000000000000000
   0.0000000000000000    8.5647549999999999    0.0000000000000000
   0.0000000000000000    0.0000000000000000   20.0000000000000000
C N Sc
13 2 1
direct
   0.2520600849331939    0.2100233223845656    0.0922173918322589 C
  -0.0029372543734081    0.2917971792762769    0.0897766865390595 C
   0.2537981000535661    0.0435343223270516    0.0894492882603483 C
   0.0101436277496629    0.7960641932042568    0.0990353688757965 C
   0.0044867209793816    0.9598892665757941    0.0886025111453535 C
   0.7505919556183798    0.2065699683070961    0.0867913143686315 C
   0.5049491437707008    0.2912043001685008    0.0977798898299052 C
   0.7538876248407705    0.0416205176017871    0.0856897403392974 C
   0.7596329590351495    0.7060324528804973    0.1037042957888377 C
   0.5051218199772928    0.7954448754035598    0.1014128667791719 C
   0.7528107441335610    0.5347040388266763    0.1043887910669309 C
   0.5051845716385784    0.9592953285545814    0.0908194569587034 C
   0.5154611150437113    0.4491675752729656    0.1184965331272595 C
  -0.0107461704064453    0.4515824770794473    0.0913210218822461 N
   0.2576335753536898    0.7253583035665457    0.1110129589976345 N
   0.1879213816522144    0.5377118785703978    0.1720138842085727 Sc
