Title
1.0
   8.5490480000000009    0.0000000000000000    0.0000000000000000
   0.0000000000000000    8.5490480000000009    0.0000000000000000
   0.0000000000000000    0.0000000000000000   20.0000000000000000
C N W
21 3 1
direct
   0.9078016853988581    0.2061965751242519    0.0978887479886294 C
   0.9060907352432149    0.5036084824509623    0.0986774360852119 C
   0.9113710365331011    0.8016525261609041    0.0978023446488632 C
   0.1976458547501553    0.0816134659403597    0.0968132329794437 C
   0.0744953503558711    0.2035791496283543    0.0977016943540966 C
   0.1572961952822761    0.6488590292585978    0.0982855137429310 C
   0.0746607975353300    0.5013755291608838    0.0984960229026786 C
   0.1526145449151051    0.3526171536514819    0.0981410951707926 C
   0.0798462242485287    0.7963757207651451    0.0978176966936034 C
   0.4949502379783486    0.0866680322910878    0.0966860887186782 C
   0.3450676769043981    0.1597086283494280    0.0965254718653724 C
   0.4952741846074317    0.9183601216205579    0.0967166961686244 C
   0.3473713641739880    0.8404210975281587    0.0966862818923158 C
   0.7870629834847546    0.0875741715873636    0.0972521899769365 C
   0.6410971014877862    0.1684030319306706    0.0973607614798521 C
   0.7893013554767000    0.9196303705933228    0.0971302172944665 C
   0.8294725214001761    0.6531659117492373    0.0985228568841780 C
   0.8284613982465122    0.3546984533464063    0.0985165842475550 C
   0.6430046020968117    0.8369090469768931    0.0973002716743740 C
   0.3224756255324245    0.3272200908531815    0.0976492698740938 C
   0.3279195169264583    0.6758222915302889    0.0975983729959503 C
   0.6665900730860885    0.3338506187994572    0.0985780943493064 N
   0.6674661598518183    0.6745833278695498    0.0985518935342840 N
   0.1994451412825338    0.9171034405898286    0.0968718412562149 N
   0.4786296332013211    0.4947937322436461    0.1001343232215202 W
