Title
1.0
   4.9440799999999996    0.0000000000000000    0.0000000000000000
   0.0000000000000000    8.5647549999999999    0.0000000000000000
   0.0000000000000000    0.0000000000000000   20.0000000000000000
C N W
13 2 1
direct
   0.2528115803641635    0.2111770347004603    0.0902459043485442 C
  -0.0020424492058277    0.2917549395877018    0.0875832130298302 C
   0.2533300406826371    0.0442719520117082    0.0892969213970473 C
   0.0057276137004351    0.7978133347387140    0.1006733644489059 C
   0.0033940107610851    0.9604160325773108    0.0889463176235499 C
   0.7514977725959421    0.2070060103072366    0.0869165085902534 C
   0.5069149675592516    0.2905056473701368    0.0969888138356984 C
   0.7525679722567484    0.0410311560627173    0.0859128540865330 C
   0.7556616100890549    0.7082174106527889    0.1046404498767395 C
   0.5025277491974018    0.7954834169827528    0.1037536841137515 C
   0.7581947009699940    0.5367693137975096    0.1068811495219546 C
   0.5031905335242511    0.9597547016570968    0.0919234231063423 C
   0.5229644014926651    0.4475604754007327    0.1221896691797176 C
  -0.0090441837531841    0.4553171377369301    0.0837138347248752 N
   0.2524204431823646    0.7266532054770275    0.1165824757505150 N
   0.1898832365830184    0.5262682309391770    0.1662634163657497 W
