Title
1.0
   9.8694509999999998    0.0000000000000000    0.0000000000000000
   0.0000000000000000    8.5490480000000009    0.0000000000000000
   0.0000000000000000    0.0000000000000000   20.0000000000000000
C N Nb
28 2 1
direct
   0.0558795047600894    0.0890994977596540    0.0893522652742972 C
   0.9308520493008230    0.1720510087931970    0.0902891962065068 C
   0.0570431744327715    0.9234037489649096    0.0898252647116302 C
   0.9324686854050159    0.3391670194814563    0.0923885506273345 C
   0.0567966943545287    0.5900521434165649    0.0933083699547236 C
   0.9324652882716841    0.6727111746251975    0.0934591706232422 C
   0.0569410389836982    0.4224214850795562    0.0926530777164982 C
   0.9315228811664560    0.8396824943309272    0.0912867281776522 C
   0.3074707054757563    0.0878536435664574    0.0899970795388473 C
   0.1824159292230979    0.1713933518239074    0.0900585204968473 C
   0.1811659946116924    0.3382095993327281    0.0920352008857813 C
   0.3055424376236552    0.5899557245423286    0.0945078643210312 C
   0.1815763127356306    0.6741340485400863    0.0929953711779926 C
   0.3054174854133452    0.4211012477094892    0.0940162071272262 C
   0.1823713222895251    0.8404217234561953    0.0907939805821451 C
   0.4328063071843423    0.1734687170172237    0.0927302700345665 C
   0.5552854486159986    0.9242003107616795    0.0947411840458636 C
   0.4305527173980641    0.3382122551172471    0.0968723071304555 C
   0.4294125636264531    0.6742719141676186    0.0975482033770465 C
   0.4310143005643100    0.8396751649087181    0.0937662553484222 C
   0.8047077520881194    0.0890038687510237    0.0905304576194007 C
   0.6793945739185305    0.1757072065465851    0.0936760267416268 C
   0.8057493558715917    0.9224203784989156    0.0911790769218233 C
   0.6813852575366119    0.3408091773991794    0.0989724114651052 C
   0.8080008688720610    0.5899112951283118    0.0960862147034125 C
   0.6822210452921127    0.6709395435082284    0.0999863892478436 C
   0.8081968527172060    0.4210378850464205    0.0955519713587467 C
   0.6795143871093242    0.8376690887419729    0.0948934758366324 C
   0.5569231710338957    0.0906115956767299    0.0937521794840125 N
   0.3058263409967732    0.9234302454998193    0.0901489204946984 N
   0.5522145531268388    0.5078484418076898    0.1435628087686143 Nb
