Title
1.0
   8.5490480000000009    0.0000000000000000    0.0000000000000000
   0.0000000000000000    8.5490480000000009    0.0000000000000000
   0.0000000000000000    0.0000000000000000   20.0000000000000000
C N Ru
18 6 1
direct
   0.9086249757462550    0.2058742354775273    0.0974516383144099 C
   0.9109369004113280    0.8005569719693169    0.0974792849120034 C
   0.1960952936518212    0.0839669890932691    0.0976742305134173 C
   0.0757515926690644    0.2013421115022157    0.0975437423807066 C
   0.1571310787534942    0.6511618027424891    0.0977861637325309 C
   0.0777923264713576    0.5008060730183463    0.0977781590311820 C
   0.1568784275161274    0.3515926348982987    0.0978279107115704 C
   0.0785851948700727    0.7989851854546868    0.0975791969156676 C
   0.4933942967114432    0.0885968391638620    0.0978571370385826 C
   0.3432470609510950    0.1666507240111211    0.0979474785114171 C
   0.4928710076823436    0.9159783220932942    0.0977847835238741 C
   0.3437882722356280    0.8346556868318321    0.0978167975433325 C
   0.7886291657363146    0.0870524501306197    0.0974945966434588 C
   0.6415158239912429    0.1692106683206561    0.0977930631708965 C
   0.7893335584645079    0.9187913063038554    0.0974924512603418 C
   0.8293491310706116    0.6509956847205330    0.0976405793988003 C
   0.8272847661918751    0.3543682703401687    0.0976775869144085 C
   0.6424924183935504    0.8352554130396312    0.0977094631242603 C
   0.9068045867866211    0.5024384026415364    0.0977343060891881 N
   0.3191807681486281    0.3289099779904313    0.0981122422237427 N
   0.3195657003289207    0.6754342392825812    0.0979518527745965 N
   0.6664568495837216    0.3331311974086792    0.0979506632127014 N
   0.6684890507291336    0.6717234441136194    0.0978436729328195 N
   0.1971655647274750    0.9156014503540155    0.0976786582162242 N
   0.4940481881773600    0.5017099190974131    0.0980993409098474 Ru
