Title
1.0
   9.8694509999999998    0.0000000000000000    0.0000000000000000
   0.0000000000000000    8.5490480000000009    0.0000000000000000
   0.0000000000000000    0.0000000000000000   20.0000000000000000
C N Fe
28 2 1
direct
   0.0556820559798545    0.0885382702769115    0.0880550710025869 C
   0.9314104198790697    0.1717604795202443    0.0892900557334891 C
   0.0572918760380539    0.9227551187477427    0.0885987655440431 C
   0.9341739282326169    0.3386758537502601    0.0881146101007381 C
   0.0572513105986865    0.5899795465185641    0.0858454961938176 C
   0.9336421206316131    0.6739765411429520    0.0887380835402339 C
   0.0573867285600693    0.4230815948196175    0.0853982897032388 C
   0.9319283246009020    0.8401494443892019    0.0899569252895164 C
   0.3050545574192108    0.0883996420222860    0.0939657526722341 C
   0.1802147583879763    0.1698612828575368    0.0891579061029645 C
   0.1799599958854632    0.3374379390984383    0.0879509354498554 C
   0.3033979562219573    0.5882982971483448    0.0944346015521047 C
   0.1815402724728492    0.6729301961500084    0.0886498512346318 C
   0.3018378229852121    0.4186180755199456    0.0941271325542490 C
   0.1822868013111041    0.8405146700350098    0.0898900019350597 C
   0.5554183625457219    0.0926539114125070    0.1020067551145958 C
   0.4277106997118242    0.1766188840417595    0.0999374169538467 C
   0.5541998059809476    0.9252490971748801    0.1018004517355793 C
   0.4259769946299599    0.6725299396232590    0.1025342454230721 C
   0.4287353801183720    0.8374172757029941    0.1001343877782463 C
   0.8060141899115271    0.0899236635187423    0.0943789211733242 C
   0.6825726959519637    0.1776549031058405    0.1005434593592504 C
   0.8059056460711866    0.9222249039169664    0.0946267764574916 C
   0.6884631029237990    0.3431843703714734    0.1035139058528166 C
   0.8118891323780989    0.5909306745861591    0.0948948655662042 C
   0.6861550960923128    0.6698250205152659    0.1029219927005295 C
   0.8128295542014199    0.4219314896594451    0.0948066352587989 C
   0.6808474536387842    0.8365525952377220    0.1004637363878122 C
   0.4214223442192946    0.3380674133393244    0.1018454966440122 N
   0.3055477136481163    0.9229574086381908    0.0940891892908528 N
   0.5563878987720476    0.5081764971584252    0.1102932856948524 Fe
