Title
1.0
   9.8694509999999998    0.0000000000000000    0.0000000000000000
   0.0000000000000000    8.5490480000000009    0.0000000000000000
   0.0000000000000000    0.0000000000000000   20.0000000000000000
C N Y
29 2 1
direct
   0.0568843103637182    0.0916001448055130    0.0836158054450864 C
   0.9317526469238701    0.1737196544248536    0.0865031174462054 C
   0.0562537787716910    0.9242718383107605    0.0830522802112747 C
   0.9310138253381318    0.3398178888924927    0.0908079985995191 C
   0.0565970521687503    0.5896170814034452    0.0865474361726491 C
   0.9324142138939355    0.6729353875163216    0.0896969874968968 C
   0.0572329651965856    0.4228851940498096    0.0886819388987835 C
   0.9319067727361300    0.8396001477719547    0.0870416692105613 C
   0.3061991413314195    0.0901489982415166    0.0851685599917086 C
   0.1819976096413495    0.1751498482716494    0.0850204260428282 C
   0.3051236944025267    0.9249684319632446    0.0855651958909300 C
   0.1835850031779928    0.3415268418504045    0.0887016605586845 C
   0.3054683695491409    0.5943070810266834    0.0937761592019493 C
   0.1799209086212225    0.6741875630355557    0.0857612951784482 C
   0.3107650399577414    0.4258097555337108    0.0941919654692310 C
   0.1802331249428449    0.8409033715700898    0.0837925467142049 C
   0.5563927470136324    0.0854214967099397    0.0936354140089487 C
   0.4318800214857401    0.1703198745579881    0.0898826196636862 C
   0.5558241732720368    0.9197823440338200    0.0994360141641745 C
   0.4351842463787083    0.3351526931751014    0.0962711283839269 C
   0.4274411921176413    0.8403138311268297    0.0956398717994625 C
   0.8074178667017495    0.0886846018594983    0.0880807697290988 C
   0.6820745769459357    0.1690258937378651    0.0924098469459763 C
   0.8072976467503299    0.9229808892232323    0.0903083092582036 C
   0.6808471995622225    0.3341838315512307    0.0994208490134066 C
   0.8089859863507749    0.5909460624556212    0.1028861448323462 C
   0.6929894069654415    0.6792352832541325    0.1188760195181054 C
   0.8055974939729968    0.4223459640881997    0.0995205098886590 C
   0.6848252306184230    0.8391778919979870    0.1031853485885141 C
   0.4203296201407815    0.6818433447571786    0.1044428042439042 N
   0.5576310917021986    0.4067536365501591    0.1083590392801922 N
   0.5375720430043415    0.5826291322532208    0.1853952681524680 Y
