Title
1.0
   4.9440799999999996    0.0000000000000000    0.0000000000000000
   0.0000000000000000   17.1295089999999988    0.0000000000000000
   0.0000000000000000    0.0000000000000000   20.0000000000000000
C N Ta
29 1 1
direct
   0.0003082404656991    0.1048494580607317    0.2901289210785821 C
   0.2503818592058732    0.1469561737938687    0.2925421784199416 C
   0.2503152356175508    0.2302149680472591    0.2994772749520449 C
   0.0010051647057201    0.2725636671547704    0.3034261634089523 C
   0.0023642937935442    0.6027531120923463    0.3024166793159342 C
   0.2503790733977567    0.7270576534277285    0.2927706090960679 C
   0.0014802850247335    0.8529229532928020    0.2879533521869152 C
   0.2504846248858809    0.8951539790767610    0.2874489229286420 C
   0.2505092682549626    0.9790284772908597    0.2873233159697074 C
   0.0012483540499002    0.7689238400619709    0.2903273564137497 C
   0.5004821272447459    0.1048472269613761    0.2901535608090557 C
   0.7503604863884495    0.1469651705890451    0.2920347013907059 C
   0.7502482479479723    0.2306716392117496    0.2982825705601094 C
   0.5005484292392954    0.0209901018585170    0.2877648340778285 C
   0.7502470625782158    0.3959016244066028    0.3173724952094483 C
   0.7503016945516177    0.4821090845611199    0.3166579057921962 C
   0.4995032208647752    0.2726041431076890    0.3035450505763868 C
   0.4982371416164703    0.6027219912741497    0.3025453136738755 C
   0.7503778164048016    0.7275820967731460    0.2918538834191776 C
   0.4994422145456597    0.8529145215466637    0.2879627626671469 C
   0.7504508889560955    0.8947262944569596    0.2872984731286399 C
   0.7504909451263857    0.9787422538574577    0.2871715862974019 C
   0.4995502135353935    0.7689204750438672    0.2903505099150019 C
   0.7502975497819989    0.6449333823887284    0.2973188170148817 C
   0.0004347835028806    0.0209827508268706    0.2877542636132490 C
   0.4985155558906200    0.5215435068828749    0.3138448762186056 C
   0.0019156192528695    0.5215537866908033    0.3134866461035841 C
   0.5012154011300349    0.3549540896387829    0.3148565813361935 C
  -0.0009693276992604    0.3549139096516254    0.3145628810969528 C
   0.2503317534314564    0.6450871751962349    0.2988362441642857 N
   0.2495487763079016    0.4372524927766340    0.3575912691646881 Ta
