Title
1.0
   9.8694509999999998    0.0000000000000000    0.0000000000000000
   0.0000000000000000    8.5490480000000009    0.0000000000000000
   0.0000000000000000    0.0000000000000000   20.0000000000000000
C N Ir
27 4 1
direct
   0.0561136951622941    0.0912642927961843    0.0858211878546126 C
   0.9309958416631128    0.1745975124412772    0.0860443033889132 C
   0.0579550363394481    0.9240113681185654    0.0862925528077460 C
   0.9292813593242707    0.3423200171043562    0.0876647563061401 C
   0.0574087152738362    0.5907729346581118    0.0875092472319464 C
   0.9327388639713466    0.6739818888820370    0.0881214011009672 C
   0.0562442994826516    0.4231811813509954    0.0883010773807501 C
   0.9332757546222050    0.8405694669370706    0.0873400363350977 C
   0.3060414003625797    0.0875434795183793    0.0905733608634616 C
   0.1824317344768407    0.1724772830276676    0.0879187653080987 C
   0.1823076801805774    0.3393988772679004    0.0904862984751705 C
   0.3050673305666219    0.5884837738276019    0.1039856035677198 C
   0.1825767123728685    0.6738966971144060    0.0917784048389244 C
   0.3076602963528462    0.4211371967100970    0.0987060076132019 C
   0.1823888504344414    0.8407044450695537    0.0897993674496641 C
   0.5566930828655939    0.0848792671479316    0.0945617128859185 C
   0.5556259473702183    0.9212455849973098    0.1012469587333795 C
   0.4322254605867457    0.3320573252640215    0.0988061721718946 C
   0.4275701579715024    0.8405592106186841    0.1072641441646213 C
   0.8061415473937670    0.0896275003441170    0.0869377337188432 C
   0.6796056523677579    0.1702769634052683    0.0900155919392334 C
   0.8078037889342177    0.9242486171659112    0.0890530807350367 C
   0.6779212886670257    0.3359862455866090    0.0935287616592472 C
   0.8069945108134460    0.5943098078646162    0.0939474021773830 C
   0.8015106012229518    0.4253176071226823    0.0914266651314148 C
   0.6846343449698125    0.8403577005376623    0.0982152333871646 C
   0.4175495239934290    0.6822521390590341    0.1240227371455125 C
   0.5528663091478505    0.4058225917896453    0.1026970975406148 N
   0.6910131743528476    0.6810872007011580    0.1046625970434586 N
   0.3063698612737605    0.9245678175525139    0.0926479676272255 N
   0.4291301650946915    0.1668034444503457    0.0944717260589492 N
   0.5634960123884488    0.5865065615682874    0.1718270473577040 Ir
