Title
1.0
   4.9440799999999996    0.0000000000000000    0.0000000000000000
   0.0000000000000000    8.5647549999999999    0.0000000000000000
   0.0000000000000000    0.0000000000000000   20.0000000000000000
C N Ti
11 3 1
direct
   0.0038125194211562    0.2952113239338425    0.0973559990199934 C
   0.2463085623822218    0.0400862751912044    0.0966985196219899 C
  -0.0058186353455660    0.9550328269837413    0.0993112897279394 C
   0.7534144814033557    0.2076777269510285    0.0942671021669478 C
   0.5043066989330633    0.2941779883830936    0.0958985922639942 C
   0.7473256213913382    0.0403507597765282    0.0943371542584598 C
   0.7418291282030729    0.7102284180258533    0.0995113426775525 C
   0.7521632000884171    0.5369749982798243    0.1000779859513808 C
   0.4948310702696548    0.9574287243641824    0.0940756182549940 C
   0.4983600616118365    0.7903746605770053    0.0927211318447839 C
   0.0017395716004545    0.4593617835775516    0.1024885253005107 C
   0.5069397651344525    0.4538610427821392    0.0988904912573030 N
  -0.0116973143357107    0.7918963524124187    0.1085576523990226 N
   0.2519804400306308    0.2106828164649860    0.0963842705882779 N
   0.2645048292116228    0.6283353022966032    0.1374043246668532 Ti
