Title
1.0
   9.8694509999999998    0.0000000000000000    0.0000000000000000
   0.0000000000000000    8.5490480000000009    0.0000000000000000
   0.0000000000000000    0.0000000000000000   20.0000000000000000
C N Fe
27 3 1
direct
   0.0556735036050635    0.0882262922200762    0.0882328032728633 C
   0.9311410916796532    0.1714716126845477    0.0887585177946133 C
   0.0569910102513096    0.9223758621715828    0.0890282334662876 C
   0.9334984806481800    0.3387933338174629    0.0874798098700431 C
   0.0560701166432937    0.5906769337111399    0.0872834121760291 C
   0.0564000880516203    0.4244683186906020    0.0861584276830114 C
   0.9316240675410370    0.8384505880958053    0.0901567892591181 C
   0.3066457414127933    0.0885716898053800    0.0935807885176036 C
   0.1817359385045524    0.1711163076722845    0.0894390233920116 C
   0.1802288520599445    0.3393543359987636    0.0889367160516996 C
   0.3016782399332203    0.5906955312347308    0.0966661747856733 C
   0.1798700655439782    0.6746848702511522    0.0903864337080365 C
   0.3023615228921406    0.4207103614824125    0.0959807340142779 C
   0.1824578094286765    0.8414423862573520    0.0908640305427503 C
   0.4315756980335253    0.1732658572614704    0.0991947537852859 C
   0.5559827880515696    0.9235182926468024    0.1007781069398497 C
   0.4265553310540401    0.3370747140684654    0.1034662821385520 C
   0.4246497622379621    0.6749894895336140    0.1049900915221345 C
   0.4293457481383357    0.8393138630256687    0.1006824872482746 C
   0.8055767620146971    0.0889176526038871    0.0930461282691941 C
   0.6815315387576143    0.1776500988132685    0.0980849615835270 C
   0.8063355022663152    0.9202723610375756    0.0937557254127407 C
   0.6862060108371646    0.3439989319073538    0.1008295236577239 C
   0.8120110080957627    0.5916281499625715    0.0941147017829420 C
   0.6876534141479184    0.6678891332223560    0.1015403273244707 C
   0.8126439740278604    0.4211914034146044    0.0931086996918546 C
   0.6802471858772101    0.8361368464086770    0.0991719010226810 C
   0.9337766948356481    0.6729177025790540    0.0890995213404492 N
   0.5574050122906606    0.0911777301469836    0.1001817606497262 N
   0.3047079047563984    0.9231068355082486    0.0941645671649103 N
   0.5505541363818572    0.5067875137661251    0.1118035659316918 Fe
