Title
1.0
   4.9440799999999996    0.0000000000000000    0.0000000000000000
   0.0000000000000000    8.5647549999999999    0.0000000000000000
   0.0000000000000000    0.0000000000000000   20.0000000000000000
C N Tc
11 3 1
direct
   0.0041102937903557    0.2971653212176532    0.1014279486742107 C
   0.2426115702014297    0.0408304069077853    0.0974785133472153 C
  -0.0094970168908486    0.9530444575645902    0.1024876254319032 C
   0.7548926046722233    0.2077967557395390    0.0950157009221333 C
   0.5050403998907900    0.2913521917080014    0.0943179649200709 C
   0.7465470174491055    0.0398116066436490    0.0938143289746155 C
   0.7389173463590464    0.7106454090195287    0.0984473382877501 C
   0.7486486862097114    0.5372673955322368    0.0987164833061656 C
   0.4907324413006505    0.9601476761677058    0.0905222024212279 C
   0.4957043040471504    0.7930291254073986    0.0877875298939302 C
  -0.0014068006397484    0.4635185547995584    0.1103085862083334 C
   0.5101484894759486    0.4504044467263286    0.0930014271568436 N
  -0.0184392498703358    0.7902630946640613    0.1152726422516488 N
   0.2495507082478289    0.2106501889732825    0.0982906279463805 N
   0.2924392057566920    0.6257543689286836    0.1310910802575743 Tc
