Title
1.0
   9.8694509999999998    0.0000000000000000    0.0000000000000000
   0.0000000000000000    8.5490480000000009    0.0000000000000000
   0.0000000000000000    0.0000000000000000   20.0000000000000000
C N Ni
25 6 1
direct
   0.0562605294916648    0.0931568667359537    0.0911172903991791 C
   0.9300710576619844    0.1758215469799565    0.0924113371532615 C
   0.0563148919740233    0.9243961979058808    0.0907729768935863 C
   0.9296223684217313    0.3418285630586426    0.0959408925727963 C
   0.0563527626717933    0.5901645935067152    0.0934080801019930 C
   0.9320678022138160    0.6717576647966753    0.0943616753562123 C
   0.0564286171738780    0.4231380073563626    0.0946300521184465 C
   0.9315614969663186    0.8399377984299241    0.0923626575751930 C
   0.3054947372856749    0.0891015573671457    0.0898540857838995 C
   0.1825333328884733    0.1754355726122828    0.0911903633705698 C
   0.3061788372449711    0.9235061272751118    0.0902312494465148 C
   0.1830738804937323    0.3415917100158196    0.0928317415560706 C
   0.3079167654485990    0.5939893869468224    0.0915193600725857 C
   0.1808195401854684    0.6717208112594333    0.0920079846319295 C
   0.1811477575395876    0.8398283241305718    0.0905460028276067 C
   0.5563892130404881    0.0845149876439633    0.0932332783043855 C
   0.4316732479565599    0.1687078600806047    0.0920395761068794 C
   0.4351855068559589    0.3345074622691331    0.0973895412749088 C
   0.4278650006221122    0.8352774918719059    0.0904348002909468 C
   0.8071248041646777    0.0895513509884742    0.0905011159797923 C
   0.6810876084884835    0.1693330332925904    0.0938790366755396 C
   0.8067874958853288    0.9238588288783035    0.0912675194167609 C
   0.6770854004564579    0.3348237021187063    0.1014288473559008 C
   0.8057959026796676    0.5937063148943902    0.1013087735107123 C
   0.6849370497869833    0.8369557716056794    0.0964929998205487 C
   0.4254416551853916    0.6764122981625600    0.0885762769549789 N
   0.5554427288422391    0.4072270018153595    0.1105418906039142 N
   0.6912286556840405    0.6802165196417121    0.1093912178170643 N
   0.5568346623695056    0.9155772418775704    0.0919348923071350 N
   0.3118433837690086    0.4241182399435982    0.0926386213339608 N
   0.8009581271974403    0.4249843227788723    0.1002782425091889 N
   0.5481141793539457    0.5950988437592816    0.1611526198775548 Ni
