Title
1.0
   8.5490480000000009    0.0000000000000000    0.0000000000000000
   0.0000000000000000    8.5490480000000009    0.0000000000000000
   0.0000000000000000    0.0000000000000000   20.0000000000000000
C N V
19 5 1
direct
   0.9088464377378810    0.2067374917054624    0.0975030234315002 C
   0.9109150971295192    0.8008456248635631    0.0973580310748453 C
   0.1971865414951169    0.0840000315072067    0.0975798475561553 C
   0.0754557879253046    0.2027165067043621    0.0974816652570881 C
   0.1552585306314098    0.6517639568743080    0.0977742313724168 C
   0.0748012185714217    0.5013522295907685    0.0977532386066981 C
   0.1554923715693463    0.3542083766114622    0.0976738060720670 C
   0.0783949697951590    0.7988538910746692    0.0975120622851258 C
   0.4940374750855067    0.0848958933747182    0.0978431040903771 C
   0.3455370503784313    0.1651049935904972    0.0977615672105070 C
   0.4935877213395082    0.9145811843510011    0.0978016007034029 C
   0.3429195847524575    0.8344826224702500    0.0978541228961983 C
   0.7881196455848604    0.0871982004394429    0.0975161475441868 C
   0.6419490317652403    0.1673105094396782    0.0978425382523414 C
   0.7893127904963971    0.9187450800977029    0.0973998371477523 C
   0.8296059833871839    0.6519779658875851    0.0975895312234563 C
   0.8270866379711048    0.3545356605973283    0.0977917125319130 C
   0.6434283184710089    0.8347524530977978    0.0976330624947141 C
   0.3235903164694621    0.3330266952679688    0.0979076578477135 C
   0.9058862823920223    0.5030724158311752    0.0977794318115981 N
   0.3179534889174745    0.6755412382867566    0.0980914229259518 N
   0.6656011046546886    0.3326045855073282    0.0981393652381496 N
   0.6698923857646143    0.6721536215225229    0.0977966575962070 N
   0.1976275494247554    0.9160546330252773    0.0976568443806056 N
   0.4929256782901170    0.4982741382811872    0.0986644904490015 V
