Title
1.0
   8.5490480000000009    0.0000000000000000    0.0000000000000000
   0.0000000000000000    8.5490480000000009    0.0000000000000000
   0.0000000000000000    0.0000000000000000   20.0000000000000000
C N Y
21 3 1
direct
   0.9087599230424686    0.2032082753606741    0.0930928400962240 C
   0.9044100402184919    0.5028889870193662    0.0959844929281752 C
   0.9112339784562337    0.8034124953127624    0.0933605490021520 C
   0.1959078056340163    0.0813465827122686    0.0930630622522232 C
   0.0735140409256199    0.2019283831164209    0.0932704592474319 C
   0.1557617805800992    0.6501759986590017    0.0967134222535751 C
   0.0736024574640904    0.5012551741612794    0.0967644011241133 C
   0.1536866118550953    0.3525889267431596    0.0969702203970065 C
   0.0775134910498363    0.7992716496243480    0.0933637169814962 C
   0.4942898506082114    0.0863522457592618    0.0961446545305843 C
   0.3447214710705749    0.1628846285193510    0.0964965414396244 C
   0.4940323147548397    0.9174437109025613    0.0959946709205633 C
   0.3457040136439406    0.8363377918423159    0.0963844163228973 C
   0.7888985525931740    0.0858139065285457    0.0934907184546296 C
   0.6424383255609651    0.1660628959670050    0.0958373607379770 C
   0.7901815973559496    0.9199664531427046    0.0935337934961910 C
   0.8288737633337946    0.6535596898546051    0.0957679669612975 C
   0.8263119142923241    0.3531594264227508    0.0954159969795713 C
   0.6430803556182324    0.8382942458867141    0.0958448715395197 C
   0.3189918262827113    0.3277900120052096    0.1019168459601564 C
   0.3210713846019558    0.6746817734926963    0.1001220126498719 C
   0.6674845442803936    0.3282240483825656    0.0978876590065439 N
   0.6692896028777593    0.6775154542405774    0.0981673979614065 N
   0.1960471779490434    0.9178655249371128    0.0928092814453201 N
   0.4996051759501702    0.5027617194067627    0.1453076473114213 Y
