Title
1.0
   4.9440799999999996    0.0000000000000000    0.0000000000000000
   0.0000000000000000    8.5647549999999999    0.0000000000000000
   0.0000000000000000    0.0000000000000000   20.0000000000000000
C N Zr
11 4 1
direct
  -0.0027450391491411    0.2917310569566526    0.0938323986499500 C
   0.2500000000000000    0.0442717481081018    0.0823454321639329 C
  -0.0007931800220685    0.7940842395063370    0.0907198088221156 C
  -0.0011360987160844    0.9610384363269997    0.0806322538916622 C
   0.7500000000000000    0.2092127573852806    0.0824990278487255 C
   0.5027450391491409    0.2917310569566526    0.0938323986499500 C
   0.7500000000000000    0.0434456469250843    0.0768311973715598 C
   0.7500000000000000    0.7027821330717954    0.0971998264972043 C
   0.5007931800220686    0.7940842395063370    0.0907198088221156 C
   0.7500000000000000    0.5338260071987592    0.1255344367953281 C
   0.5011360987160843    0.9610384363269997    0.0806322538916622 C
   0.5098587747224929    0.4372691972162580    0.1222586009782763 N
  -0.0098587747224927    0.4372691972162580    0.1222586009782763 N
   0.2500000000000000    0.7253989562493932    0.1039724609209191 N
   0.2500000000000000    0.2122092052754619    0.0873406600983303 N
   0.2500000000000000    0.5606076857736286    0.1819028336200014 Zr
