Title
1.0
   4.9440799999999996    0.0000000000000000    0.0000000000000000
   0.0000000000000000   17.1295089999999988    0.0000000000000000
   0.0000000000000000    0.0000000000000000   20.0000000000000000
C N Mn
27 3 1
direct
   0.0011717709299369    0.1058751407067226    0.2977352818932388 C
   0.2506101180886802    0.1483046076200723    0.2984643522754652 C
   0.2510831713653716    0.2331207822540953    0.3000420701225341 C
  -0.0019469332538221    0.2730588701468393    0.3006499536514467 C
  -0.0027608487995607    0.6009119800418138    0.3011763246738737 C
   0.2484277239672649    0.7270375181685831    0.2988951137505215 C
  -0.0000798475617266    0.8536087661073146    0.2970275855653931 C
   0.2497544716263240    0.8956104782301029    0.2967366375521033 C
   0.2498991396518958    0.9795753154085608    0.2966420973235179 C
  -0.0001956733117021    0.7696570766275214    0.2980784310004359 C
   0.4990793418765763    0.1057052569014542    0.2977857080439337 C
   0.7498064031392973    0.1473809740835757    0.2983748416650302 C
   0.7498163796634177    0.2308376777586988    0.2998996235953246 C
   0.4994147129670382    0.0217165362128935    0.2968841317899826 C
   0.7554225940349877    0.3929034158753280    0.3026930602648775 C
   0.7538790558206930    0.4796055179391725    0.3029035241089501 C
   0.5031137277488065    0.2742369917815271    0.3009540157534320 C
   0.4996298521054380    0.6016862639482877    0.3014984428464946 C
   0.7499273425650316    0.7277012945272187    0.2987998781062988 C
   0.4993358538471966    0.8533949414446556    0.2970398753728457 C
   0.7497146915663865    0.8956618929375129    0.2967760202579181 C
   0.7499038370225476    0.9797168093777092    0.2966804366930846 C
   0.4987931884022098    0.7693532680088052    0.2981272941566946 C
   0.7489441147389949    0.6439381850183987    0.3004699492759390 C
   0.2484995243769990    0.6429083523538763    0.3005902786980682 C
   0.0004977756389663    0.0217956180605007    0.2968515829721403 C
   0.5095265153866677    0.5188557148978024    0.3030002082825097 C
   0.9938646699181251    0.5200756562672316    0.3022597661169801 N
   0.5146585091325975    0.3553239955324140    0.3027762249971536 N
  -0.0101758870546988    0.3535969256968045    0.3018765907071478 N
   0.2503917044000593    0.4381861760645043    0.3033706984866161 Mn
