Title
1.0
   8.5490480000000009    0.0000000000000000    0.0000000000000000
   0.0000000000000000    8.5490480000000009    0.0000000000000000
   0.0000000000000000    0.0000000000000000   20.0000000000000000
C N V
19 5 1
direct
   0.9083582490771881    0.2058566394674651    0.0972917301538592 C
   0.9110289511240368    0.8009995233326809    0.0972718702471493 C
   0.1975262282653618    0.0833564161174232    0.0972102349347637 C
   0.0764721443875860    0.2019384917958593    0.0972326190332362 C
   0.1555513221648452    0.6499890964435806    0.0975559639175763 C
   0.0731926122028753    0.5003194661136947    0.0976734259076067 C
   0.1550441397156727    0.3534040577761113    0.0976572646590790 C
   0.0791231198498946    0.7992471097281119    0.0972209123035135 C
   0.3466105631257320    0.1659637450032528    0.0975954301463955 C
   0.4942622800631361    0.9189160404041561    0.0976448822999625 C
   0.3452642848857981    0.8369190430332560    0.0975748096974578 C
   0.7878801920672213    0.0862852406364238    0.0972995493964673 C
   0.6415574357997614    0.1667705269714690    0.0977352854851188 C
   0.7900873725933764    0.9187909312110362    0.0972554635678785 C
   0.8280243569242896    0.6525434997993442    0.0977010574666454 C
   0.8259897041539954    0.3522854488931089    0.0977661707659235 C
   0.6428787728952249    0.8379065243571221    0.0977032651035115 C
   0.3250810335066658    0.3319207791109696    0.0981633599553423 C
   0.3230195895831675    0.6724899196520592    0.0979147929672819 C
   0.4952595749727955    0.0867410845641760    0.0977007740070430 N
   0.9035015843810850    0.5019264099649359    0.0978151848439128 N
   0.6637400159278891    0.3289982579317612    0.0982958991269041 N
   0.6679974892475319    0.6743084456134265    0.0982225762728020 N
   0.1964476973273187    0.9167153399891267    0.0971965168428620 N
   0.4915132857575439    0.5001979620894685    0.1010059608976802 V
