Title
1.0
   9.8694509999999998    0.0000000000000000    0.0000000000000000
   0.0000000000000000    8.5490480000000009    0.0000000000000000
   0.0000000000000000    0.0000000000000000   20.0000000000000000
C N Ru
29 2 1
direct
   0.0565591286581161    0.0912526626185613    0.0830051657230817 C
   0.9310561503977702    0.1733090202401964    0.0853542311834620 C
   0.0558755541434702    0.9242352678873647    0.0826390730246907 C
   0.9301594454194478    0.3397612815160438    0.0893518622996305 C
   0.0565386854265916    0.5891489375783606    0.0860133529631556 C
   0.9323003905731372    0.6728339723265433    0.0885351780218500 C
   0.0568037058285492    0.4231293391180804    0.0878563471230026 C
   0.9315323483018324    0.8395793061434658    0.0857533918122242 C
   0.3057790351850543    0.0903915112455772    0.0859166534855868 C
   0.1818089982165404    0.1746308793925345    0.0850411806304337 C
   0.3045831666511019    0.9242355696798963    0.0876890213670668 C
   0.1834857310109115    0.3418495011833370    0.0889802037294158 C
   0.3044621909686713    0.5939928680532824    0.0978793693049768 C
   0.1805259624788224    0.6740578945880911    0.0872203230343785 C
   0.3095229632340191    0.4252413082681197    0.0965277451434691 C
   0.1800515303177052    0.8409239121600905    0.0850724110623012 C
   0.5555805423017953    0.0848833358946333    0.0938698923283289 C
   0.4314634759906050    0.1706925537050645    0.0909937319514280 C
   0.5550393463190898    0.9197913492987656    0.0996200499544690 C
   0.4341097105429852    0.3351904063945892    0.0989399875361445 C
   0.4263156798924749    0.8402051769870174    0.0994370293000944 C
   0.8070183666723578    0.0888515057060698    0.0869631921951262 C
   0.6812667706897084    0.1688902417905537    0.0922747093264164 C
   0.8068530791787101    0.9226605658203646    0.0889673309011959 C
   0.6802789500693212    0.3332798257757408    0.1003820057741465 C
   0.8092701542491496    0.5901295046775981    0.1008499085098874 C
   0.6939529610466102    0.6800439772768470    0.1173500556162050 C
   0.8053241694109095    0.4216307512567224    0.0981758488307264 C
   0.6838859690289170    0.8401651030011040    0.1013772691677911 C
   0.4169763958932700    0.6830062105005387    0.1127859211264340 N
   0.5570246845141473    0.4040224064872643    0.1128294038586954 N
   0.5542337573882140    0.5882298534275903    0.1680231537142193 Ru
