Title
1.0
   4.9440799999999996    0.0000000000000000    0.0000000000000000
   0.0000000000000000    8.5647549999999999    0.0000000000000000
   0.0000000000000000    0.0000000000000000   20.0000000000000000
C N V
11 3 1
direct
   0.2440572074745785    0.2093266020262127    0.0975847062371276 C
  -0.0054109129707049    0.2968433998351239    0.1013901779544180 C
   0.2464668708239854    0.0374463013181713    0.0980867854277960 C
  -0.0022687331593192    0.9526666916804789    0.1007059753281605 C
   0.7487806585624693    0.2090786909714889    0.0951114479460178 C
   0.4952111866382807    0.2919359894514008    0.0927467021091250 C
   0.7516329427463366    0.0406661073505957    0.0956610965514621 C
   0.7500835641657041    0.7137464891046618    0.1000486813332595 C
   0.7450854299168219    0.5400938757652792    0.0998120935588183 C
   0.5016926432532284    0.9558772983157472    0.0952930202663976 C
   0.5033673639262241    0.4575807975105153    0.0893087554917917 C
  -0.0101160975395779    0.4605843104424907    0.1126267262769954 N
  -0.0101178421251006    0.7892597047802090    0.1085009525992492 N
   0.5117687635507052    0.7944420059999741    0.0942119256645684 N
   0.2797669547363684    0.6221327354476520    0.1268909532548160 V
