Title
1.0
   9.8694509999999998    0.0000000000000000    0.0000000000000000
   0.0000000000000000    8.5490480000000009    0.0000000000000000
   0.0000000000000000    0.0000000000000000   20.0000000000000000
C N Ni
27 4 1
direct
   0.0561919662912539    0.0930007214831046    0.0842621961580601 C
   0.9313105143029015    0.1739254978123068    0.0854614513050146 C
   0.0572162331997993    0.9251312530981098    0.0832787185137207 C
   0.9303595768037072    0.3415215727773580    0.0885029289675095 C
   0.0571127627206886    0.5902258924022961    0.0853907297431925 C
   0.9331050227368515    0.6732880040543859    0.0857636785245831 C
   0.0575686742445439    0.4232756278035426    0.0883049654442351 C
   0.9326837472874782    0.8397585735690252    0.0844705797778663 C
   0.3055841352686415    0.0894106324414366    0.0897927138086763 C
   0.1822427606029445    0.1747603562003248    0.0881334361439506 C
   0.1846742334596055    0.3419366940735054    0.0921443562530196 C
   0.3028245681145356    0.5951327276648471    0.1038429558592730 C
   0.1807078703733729    0.6753666120951134    0.0884511045045522 C
   0.3105667998822443    0.4267426260372695    0.1024977531890098 C
   0.1800757846612376    0.8416793641262587    0.0864834217248857 C
   0.5563723553641542    0.0826390588798422    0.0951125644033117 C
   0.4309665481411873    0.1676349581869205    0.0952703779081667 C
   0.5542062539349251    0.9161233572282766    0.1003356004034363 C
   0.4347198452490797    0.3332740562579877    0.1047947877394400 C
   0.4228190902919520    0.8410885185412117    0.1046588525081607 C
   0.8068670045509214    0.0877911859919567    0.0860421139279451 C
   0.6811505283354484    0.1667576157892137    0.0913399225312636 C
   0.8071893297088204    0.9223140391984469    0.0872089646784091 C
   0.6797797466001645    0.3319440729618267    0.0996403899656896 C
   0.8084827651700169    0.5922340733379063    0.0957808082151975 C
   0.8039181839074961    0.4234110518534326    0.0951461124343757 C
   0.6849141197363463    0.8359617705841315    0.0984855123674731 C
   0.4089660305642889    0.6907357881552866    0.1232441098190463 N
   0.5593030716822094    0.3997410882151750    0.1154106650150770 N
   0.6956600694589455    0.6789147582056284    0.1089654473177063 N
   0.3044263399388280    0.9251664212185090    0.0895629234630047 N
   0.5576730674154162    0.5893580297553668    0.1578948573847635 Ni
