Title
1.0
   4.9440799999999996    0.0000000000000000    0.0000000000000000
   0.0000000000000000    8.5647549999999999    0.0000000000000000
   0.0000000000000000    0.0000000000000000   20.0000000000000000
C N Co
14 1 1
direct
   0.0001364662864406    0.2895486729384056    0.0952037692616802 C
   0.2500000000000000    0.0432315551656396    0.0898672169521273 C
  -0.0005236206723192    0.7940374608498775    0.0983106648636346 C
  -0.0001434966490718    0.9607806072869206    0.0898389517498314 C
   0.7500000000000000    0.2068206762917756    0.0882524663507865 C
   0.4998635337135596    0.2895486729384056    0.0952037692616802 C
   0.7500000000000000    0.0419912073808161    0.0866705416916660 C
   0.7500000000000000    0.7084813940497788    0.1012036233690195 C
   0.5005236206723195    0.7940374608498775    0.0983106648636346 C
   0.7500000000000000    0.5397117854528564    0.1055004719001806 C
   0.5001434966490721    0.9607806072869206    0.0898389517498314 C
   0.5075948917333646    0.4500037009648280    0.1095216565773766 C
  -0.0075948917333645    0.4500037009648280    0.1095216565773766 C
   0.2500000000000000    0.7205603676595640    0.1082577927651264 C
   0.2500000000000000    0.2067583110579568    0.0921377743126523 N
   0.2500000000000000    0.5437038188615505    0.1548720277534051 Co
