Title
1.0
   9.8694509999999998    0.0000000000000000    0.0000000000000000
   0.0000000000000000    8.5490480000000009    0.0000000000000000
   0.0000000000000000    0.0000000000000000   20.0000000000000000
C N Pd
27 4 1
direct
   0.0562709640208552    0.0912288713243128    0.0872871262370989 C
   0.9309961590643078    0.1747731317801502    0.0871000166987168 C
   0.0583338317596689    0.9240718962827288    0.0885206727022979 C
   0.9285679358308109    0.3427275360403911    0.0875313127265920 C
   0.0575601646287185    0.5907259948048368    0.0893464243554462 C
   0.9327050171583962    0.6741231048327033    0.0893229416971786 C
   0.0561909294403139    0.4231367419924263    0.0890149577823462 C
   0.9335067665798973    0.8403616675497996    0.0892873302690070 C
   0.3064905552167034    0.0866371899003548    0.0911293783495467 C
   0.1829225407876241    0.1722649609016786    0.0883336955005268 C
   0.1826157459442496    0.3395386829899583    0.0902715006953159 C
   0.3072383963783876    0.5876750603685655    0.1042764915843393 C
   0.1832626229411622    0.6734787445772618    0.0935516949880385 C
   0.3085190397157382    0.4208916048721623    0.0966764718535993 C
   0.1827080052601393    0.8402668202420789    0.0917058639802991 C
   0.5566787749129664    0.0840880939193828    0.0947007727401810 C
   0.5562152725875141    0.9204277806254526    0.1019827239680389 C
   0.4342681183198487    0.3327565194265787    0.0935835519086028 C
   0.4287972556522759    0.8385567367794257    0.1084660688758839 C
   0.8062030987730376    0.0895337990467806    0.0888196751191253 C
   0.6795709728823572    0.1701148538272173    0.0900488174875176 C
   0.8080702104417641    0.9241429226010616    0.0909057665159441 C
   0.6756491626368067    0.3369778621618861    0.0890372200674246 C
   0.8045710308322801    0.5953699030996077    0.0920346065939448 C
   0.8005782155079941    0.4257772195004738    0.0886231297851405 C
   0.6850471870375711    0.8383932168113308    0.0978929561159097 C
   0.4188953107865903    0.6810411963992659    0.1249550025404381 C
   0.5516629405947632    0.4083081926724093    0.0911266030385932 N
   0.6877526812423193    0.6793754506684544    0.0997594275086817 N
   0.3068982230331002    0.9235593339181056    0.0933833826504069 N
   0.4297046118930012    0.1654891599554203    0.0937433974993562 N
   0.5611872581388447    0.5944317501277397    0.1832560181644772 Pd
