Title
1.0
   4.9440799999999996    0.0000000000000000    0.0000000000000000
   0.0000000000000000    8.5647549999999999    0.0000000000000000
   0.0000000000000000    0.0000000000000000   20.0000000000000000
C N Ni
14 1 1
direct
   0.2500000000000000    0.2064884415361132    0.0888889435841210 C
  -0.0020787662612674    0.2880644275075133    0.0939587704712185 C
   0.2500000000000000    0.0426998654380576    0.0856479234755324 C
   0.0021538980922257    0.7977978957807057    0.1017750742921423 C
  -0.0005126767765371    0.9593516106214249    0.0869641926616524 C
   0.7500000000000000    0.2055413914741754    0.0859055972845159 C
   0.5020787662612669    0.2880644275075133    0.0939587704712185 C
   0.7500000000000000    0.0401228556117598    0.0825503052553919 C
   0.7500000000000000    0.7115641801803748    0.1072602821960696 C
   0.4978461019077743    0.7977978957807057    0.1017750742921423 C
   0.7500000000000000    0.5411747173863084    0.1104732401245846 C
   0.5005126767765368    0.9593516106214249    0.0869641926616524 C
   0.5136905240330280    0.4462179845613972    0.1112024831190826 C
  -0.0136905240330284    0.4462179845613972    0.1112024831190826 C
   0.2500000000000000    0.7305844243279970    0.1154209213755127 N
   0.2500000000000000    0.5389602871031322    0.1585637456160879 Ni
