Title
1.0
   9.8694509999999998    0.0000000000000000    0.0000000000000000
   0.0000000000000000    8.5490480000000009    0.0000000000000000
   0.0000000000000000    0.0000000000000000   20.0000000000000000
C N Au
30 1 1
direct
   0.0557757360704161    0.0910426513804817    0.0860800511457511 C
   0.9306166221447775    0.1717197055797222    0.0894264512062650 C
   0.0536793703099744    0.9245522881614804    0.0849683755681804 C
   0.9323803063466486    0.3386393223462748    0.0921837021150631 C
   0.0554173470616562    0.5898978401001401    0.0869116868121407 C
   0.9312454433284509    0.6724353375060600    0.0914317810765983 C
   0.0570279675904399    0.4237766018416186    0.0881549011303476 C
   0.9295274076888159    0.8389991247363293    0.0893350380895316 C
   0.3053380440325221    0.0931496776941736    0.0866325394540435 C
   0.1810721312719620    0.1758440765197912    0.0867103707919231 C
   0.3026392858774886    0.9265244020738086    0.0846304184729029 C
   0.1833829521926840    0.3433963394229523    0.0879382754183751 C
   0.3051950219384802    0.5978364428746312    0.0870785170307413 C
   0.1783489833582480    0.6758633059647985    0.0839967668282143 C
   0.3081421972374540    0.4281475100263368    0.0914830761109062 C
   0.1782245594835253    0.8424300014052108    0.0832605669624798 C
   0.5547287828471124    0.0863589303099472    0.0946816325142304 C
   0.4314484740856309    0.1746413944703689    0.0921686140642622 C
   0.5524553944607467    0.9192235170511153    0.0948950419326795 C
   0.4328017510828892    0.3428987989036349    0.0993252597157704 C
   0.5605669085028386    0.4108574044730304    0.1151282182217317 C
   0.4241717602649556    0.8380013867727280    0.0885959727979274 C
   0.8057247041667780    0.0869927902539529    0.0914163834256635 C
   0.6811840658737910    0.1688075795918998    0.0964564592220302 C
   0.8040491136367279    0.9199141661901479    0.0924015200680847 C
   0.6843404789693329    0.3344547044602146    0.1049080403324617 C
   0.8091290281503977    0.5872293578497000    0.1027802221238836 C
   0.6907741401775590    0.6729817939133513    0.1141980184863241 C
   0.8093960486527900    0.4195843776849136    0.1010246036346029 C
   0.6781547910231612    0.8355593029369959    0.1005418414858081 C
   0.4215842468380198    0.6803553342258736    0.0888319697402822 N
   0.5711159353337314    0.5781305332783244    0.1880986840208274 Au
