Title
1.0
   9.8694509999999998    0.0000000000000000    0.0000000000000000
   0.0000000000000000    8.5490480000000009    0.0000000000000000
   0.0000000000000000    0.0000000000000000   20.0000000000000000
C N Co
27 3 1
direct
   0.0558663722775144    0.0900017443763260    0.0937629688831652 C
   0.9307100387927373    0.1725074217387616    0.0941310621183605 C
   0.0563079728413415    0.9240731089101922    0.0937039042314100 C
   0.9330091470323008    0.3397375177641006    0.0941875413063867 C
   0.0567033042777327    0.5892708878924573    0.0938377615032539 C
   0.9335267123480501    0.6747543668171742    0.0940944840562433 C
   0.0570342678589271    0.4234228047918377    0.0938789445013611 C
   0.9317782385584563    0.8411701902307894    0.0940607022941157 C
   0.3067733148866245    0.0910475700462832    0.0948107242531623 C
   0.1810678865590544    0.1723309178984563    0.0941230859810620 C
   0.3065787384585817    0.9219525818379393    0.0947808124119720 C
   0.1808689444055626    0.3394505256904536    0.0941967493128415 C
   0.3032490667895496    0.5914215333044154    0.0948867576334074 C
   0.1800197166850196    0.6734935196624712    0.0941158711237372 C
   0.3040695048517550    0.4214199187732787    0.0949491832674412 C
   0.1810110122693452    0.8408215850387348    0.0940602905388024 C
   0.5556448833365607    0.0894410897971895    0.0958277045167278 C
   0.4301448075466703    0.1790097766174439    0.0955874884678116 C
   0.5555721866194039    0.9176107311932015    0.0958136525515377 C
   0.4288752552845739    0.8316478663271796    0.0955226907871779 C
   0.8046956107218497    0.0903257988117051    0.0948374303635529 C
   0.6805550290941136    0.1776513867423823    0.0956514852206803 C
   0.8055075033068277    0.9213387655856058    0.0947899662370138 C
   0.6838711322705597    0.3462275033551150    0.0958866149181640 C
   0.8112501203647241    0.5925531922184518    0.0949159733145284 C
   0.8105929030388900    0.4238384290577225    0.0949826069459545 C
   0.6825909171257507    0.8310274613808609    0.0955690458640109 C
   0.4270575955086450    0.3435361713170275    0.0956963259091869 N
   0.6881862410583230    0.6677392487887501    0.0957492288509592 N
   0.4242632258936705    0.6697003657143732    0.0956434617967403 N
   0.5557533499368944    0.5023510183193335    0.0969104808392723 Co
