Title
1.0
   8.5490480000000009    0.0000000000000000    0.0000000000000000
   0.0000000000000000    8.5490480000000009    0.0000000000000000
   0.0000000000000000    0.0000000000000000   20.0000000000000000
C N Co
19 5 1
direct
   0.9087270045192082    0.2075194354943088    0.0976595872274151 C
   0.9103348820878827    0.8003697810382426    0.0975079956503865 C
   0.1986786906884953    0.0854076652156748    0.0977538063830885 C
   0.0766886261862878    0.2041405247948939    0.0977193140354150 C
   0.1565001160236492    0.6510832042291538    0.0977966749879103 C
   0.0747986371170633    0.5020697811887175    0.0977925363509886 C
   0.1580750312129831    0.3571162874941607    0.0977838568841566 C
   0.0788918585228849    0.7988497500736107    0.0976411304304365 C
   0.4946128749520835    0.0851560731449019    0.0977657016881311 C
   0.3480317142626934    0.1672244366002972    0.0978097736731520 C
   0.4937665971154805    0.9132457909548162    0.0977502615375934 C
   0.3446399789684211    0.8316655635328128    0.0978732870461001 C
   0.7882446232875362    0.0875972413848726    0.0975787254162185 C
   0.6411145928445778    0.1685088231052569    0.0977664133867145 C
   0.7888181829859769    0.9181318472704825    0.0975030307834561 C
   0.8270992423016497    0.6508321491809619    0.0976815876968326 C
   0.8240513776232992    0.3560520336388241    0.0978187049199290 C
   0.6421346010667800    0.8326924975141662    0.0976931025506716 C
   0.3273906832577316    0.3368590645460136    0.0977758794355205 C
   0.9045477594873380    0.5032976947516504    0.0978357588821803 N
   0.3198943641199617    0.6718238319388360    0.0979163009630022 N
   0.6620878345306881    0.3343375027940218    0.0979151802036669 N
   0.6668021679832031    0.6691496350106688    0.0977966153876345 N
   0.1986855292673049    0.9155583863590435    0.0977892606228571 N
   0.4907950295868115    0.4961009987436306    0.0977805138565155 Co
