Title
1.0
   9.8694509999999998    0.0000000000000000    0.0000000000000000
   0.0000000000000000    8.5490480000000009    0.0000000000000000
   0.0000000000000000    0.0000000000000000   20.0000000000000000
C N Rh
29 2 1
direct
   0.0563693548859135    0.0901025029239737    0.0831799096103096 C
   0.9315220544653227    0.1729535378378450    0.0845950445971908 C
   0.0573935195785302    0.9236335062199760    0.0832193937641351 C
   0.9311113182569383    0.3403918026806844    0.0877003744165471 C
   0.0570327471298328    0.5906551856894572    0.0854710047881866 C
   0.9322354100303581    0.6732346540566125    0.0878338203336357 C
   0.0571138575677825    0.4229579882361026    0.0861359456358555 C
   0.9320504060622761    0.8396797106745235    0.0856788190685895 C
   0.3060415557045268    0.0884534566322362    0.0882179929841865 C
   0.1826474864513864    0.1724497949607596    0.0855486770709959 C
   0.1822677777199766    0.3397088686263013    0.0881237969299728 C
   0.3043880517077531    0.5886748408043265    0.0999926895084325 C
   0.1820006097962724    0.6742306806349959    0.0880426810483996 C
   0.3060605844329629    0.4215463732689994    0.0980712060826891 C
   0.1820541821499919    0.8409475563899781    0.0860623896493083 C
   0.5554801172813854    0.0873430509407900    0.0943438504431812 C
   0.5544911577522724    0.9241732822562619    0.1003937256627234 C
   0.4303972332617287    0.3333772641635112    0.1041553186238832 C
   0.4273897261901555    0.8413664930483581    0.1032568427331981 C
   0.8061566950124720    0.0890245893265544    0.0862285161707798 C
   0.6804036720116600    0.1711991448133124    0.0916631409099397 C
   0.8068164264060032    0.9235598718829919    0.0885189470126808 C
   0.6821995250523772    0.3358470258017355    0.1012940791740972 C
   0.8083513010735354    0.5906811993485415    0.0992320184950011 C
   0.8066819458262267    0.4218058943742654    0.0968539994230998 C
   0.6825616323510673    0.8417910269850565    0.1005851824495519 C
   0.4182675736694134    0.6819752477585495    0.1165094361862698 C
   0.5553265426534717    0.4038162494840758    0.1176126470638160 C
   0.6925800494495763    0.6804328366648620    0.1141857104711871 C
   0.3060388327835979    0.9258355036471981    0.0894043044993702 N
   0.4292620002540160    0.1684400946596332    0.0933682577155471 N
   0.5569456530312232    0.5899567652075323    0.1701952774772556 Rh
