Title
1.0
   4.9440799999999996    0.0000000000000000    0.0000000000000000
   0.0000000000000000    8.5647549999999999    0.0000000000000000
   0.0000000000000000    0.0000000000000000   20.0000000000000000
C N Cr
13 2 1
direct
  -0.0012732671203787    0.2884816042025837    0.0936558102308374 C
   0.2500000000000000    0.0427678940298269    0.0874411939243002 C
   0.0019040578983931    0.7964680939718797    0.0989260099738211 C
   0.0000258023917368    0.9604909053348580    0.0872589814756192 C
   0.7500000000000000    0.2057000238197367    0.0847639454283302 C
   0.5012732671203789    0.2884816042025837    0.0936558102308374 C
   0.7500000000000000    0.0407806744725262    0.0821993069820492 C
   0.7500000000000000    0.7080798298762980    0.1037881158398582 C
   0.4980959421016066    0.7964680939718797    0.0989260099738211 C
   0.7500000000000000    0.5378849363038712    0.1084668430763265 C
   0.4999741976082632    0.9604909053348580    0.0872589814756192 C
   0.5074726297627895    0.4469577321303951    0.1107890353289310 C
  -0.0074726297627894    0.4469577321303951    0.1107890353289310 C
   0.2500000000000000    0.7270255146989020    0.1105071801914094 N
   0.2500000000000000    0.2066879371762078    0.0898369689178060 N
   0.2500000000000000    0.5462765183431975    0.1642487716215126 Cr
