Title
1.0
   8.5490480000000009    0.0000000000000000    0.0000000000000000
   0.0000000000000000    8.5490480000000009    0.0000000000000000
   0.0000000000000000    0.0000000000000000   20.0000000000000000
C N Mo
21 3 1
direct
   0.9097894972517726    0.2054880114886293    0.0954447111535856 C
   0.9052186359007788    0.5031256235009904    0.0953076881667289 C
   0.9101871921856585    0.7994910473295790    0.0954741345926041 C
   0.1972452247879040    0.0836994579124794    0.0954798016748387 C
   0.0749463542034865    0.2059536714773307    0.0954667272167409 C
   0.1967696044955822    0.9185457759603333    0.0954717421494010 C
   0.1555045626532068    0.6512641124583208    0.0953380430259366 C
   0.0755931075775177    0.5024560510132074    0.0953317812434081 C
   0.1548115995718706    0.3549247398875163    0.0953928776473741 C
   0.0765817085945876    0.7981368953816546    0.0954653503670367 C
   0.4936752058577171    0.0843882870755143    0.0953621547554731 C
   0.3461751556128795    0.1636143537543210    0.0954089628522500 C
   0.4943633300051531    0.9139859340113957    0.0953498613301458 C
   0.3448755166818829    0.8362041767313911    0.0953487501813443 C
   0.7893595392617864    0.0853484517556192    0.0954585421889407 C
   0.6424811380703460    0.1643225140915803    0.0953168088831392 C
   0.7907418452670132    0.9189493446461905    0.0954735593228679 C
   0.8287047001841202    0.6523527753866317    0.0953323298340250 C
   0.8274234717143122    0.3536228252113868    0.0952917064153273 C
   0.6436017037504739    0.8374576038500668    0.0953267304998428 C
   0.3220525130194162    0.3308340612338611    0.0953464051762110 C
   0.3191634181325640    0.6746527303320271    0.0951954350825148 N
   0.6658646613893883    0.3279501098185367    0.0951550450572884 N
   0.6682832006176375    0.6770161107608642    0.0951850366835434 N
   0.4919991132129372    0.5010053349305845    0.0949808144994091 Mo
