Title
1.0
   4.9440799999999996    0.0000000000000000    0.0000000000000000
   0.0000000000000000    8.5647549999999999    0.0000000000000000
   0.0000000000000000    0.0000000000000000   20.0000000000000000
C N Ta
13 2 1
direct
  -0.0014587903824923    0.2873959346435783    0.0918273008295386 C
   0.2500000000000000    0.0426284156662884    0.0828929937227458 C
   0.0003587669247080    0.7981341485493607    0.0979797470319246 C
  -0.0007250918664364    0.9601173997760454    0.0828370754143493 C
   0.7500000000000000    0.2058593948283075    0.0807331519349550 C
   0.5014587903824920    0.2873959346435783    0.0918273008295386 C
   0.7500000000000000    0.0408872506741133    0.0766145343885231 C
   0.7500000000000000    0.7076317221691266    0.1045668842854937 C
   0.4996412330752918    0.7981341485493607    0.0979797470319246 C
   0.7500000000000000    0.5375087370241985    0.1139387771944690 C
   0.5007250918664362    0.9601173997760454    0.0828370754143493 C
   0.5060900716482827    0.4423371558116877    0.1154538396286348 C
  -0.0060900716482826    0.4423371558116877    0.1154538396286348 C
   0.2500000000000000    0.7325568646891973    0.1146656516523565 N
   0.2500000000000000    0.2065359230304887    0.0865481087195107 N
   0.2500000000000000    0.5504224143569346    0.1763559722930608 Ta
