Title
1.0
   9.8694509999999998    0.0000000000000000    0.0000000000000000
   0.0000000000000000    8.5490480000000009    0.0000000000000000
   0.0000000000000000    0.0000000000000000   20.0000000000000000
C N Zr
26 4 1
direct
   0.0565955936899227    0.0897058743726312    0.0897980556336804 C
   0.9315940461539033    0.1723388202874708    0.0947673967722533 C
   0.0579106215728749    0.9227065019997404    0.0902459290653482 C
   0.9338083228102945    0.3394442756094256    0.0984869699080203 C
   0.0585870056483295    0.5897678000417266    0.0936518586806840 C
   0.9339533890216145    0.6724301620853347    0.0988306412999345 C
   0.0584286583632376    0.4226967686246546    0.0930596737208624 C
   0.9323696708909175    0.8394993156228699    0.0953291711141841 C
   0.3082714420596764    0.0884007883297677    0.0843922163191488 C
   0.1823727663332033    0.1723790299514978    0.0862692377391103 C
   0.1820945868363625    0.3386842732004459    0.0869171393201455 C
   0.3085107417745336    0.5904210424800588    0.0831250580975918 C
   0.1824840853311690    0.6735405442187313    0.0884050172276733 C
   0.3083385329264302    0.4207421234607806    0.0822080723225683 C
   0.1821880732037741    0.8391382744435315    0.0872099302388740 C
   0.4305654666165621    0.1729641142287126    0.0857755490080684 C
   0.5539404147760075    0.9222926419286687    0.0946322332357592 C
   0.4305312949615059    0.8396023589037330    0.0860774801539563 C
   0.8050599705039317    0.0893103409484254    0.0958456513804174 C
   0.6803232148784577    0.1761739234317951    0.1008193761789286 C
   0.8062684750224651    0.9223808451714846    0.0963341477144998 C
   0.6844399314745008    0.3388028132726670    0.1135254998009798 C
   0.8105842850544056    0.5903285691445964    0.1080026202990984 C
   0.6855887234283380    0.6726684185043716    0.1130149701180877 C
   0.8102935908440577    0.4207026006609654    0.1082123842246802 C
   0.6805766223554459    0.8371013659733663    0.1015308849429536 C
   0.5558429639965081    0.0926919091836410    0.0933962608062256 N
   0.4290560025928559    0.3347290577403151    0.0823075532629786 N
   0.4281257343350203    0.6786535758794277    0.0821654816324623 N
   0.3063817459868287    0.9224517562299236    0.0833078510533545 N
   0.5280490265568820    0.5081251140692452    0.1433206887275192 Zr
