Title
1.0
   9.8694509999999998    0.0000000000000000    0.0000000000000000
   0.0000000000000000    8.5490480000000009    0.0000000000000000
   0.0000000000000000    0.0000000000000000   20.0000000000000000
C N Cr
27 4 1
direct
   0.0560918631423630    0.0917052233942378    0.0879374353319377 C
   0.9305258099461778    0.1756101333809995    0.0891280049280085 C
   0.0573671598589999    0.9239699811831384    0.0874095738877435 C
   0.9284544375813566    0.3426088690317737    0.0907196836510396 C
   0.0558811930524825    0.5899535051272431    0.0890297290594175 C
   0.9320699189710396    0.6740983408175041    0.0887393803603568 C
   0.0564735215539947    0.4233253725223827    0.0910739569960003 C
   0.9322050597664484    0.8415054861550112    0.0877997625703643 C
   0.3049965029735875    0.0874364190838007    0.0904109860116309 C
   0.1820321312223860    0.1739950980047061    0.0898749055055500 C
   0.3074117500992290    0.9218946712284425    0.0914958912219747 C
   0.1817010512522802    0.3399101405945076    0.0929412799252788 C
   0.3063181989628866    0.5889575025278054    0.1018083496871863 C
   0.1818564577197880    0.6706438920237681    0.0914367607376298 C
   0.1825994113884726    0.8380120033707964    0.0898902850137751 C
   0.5558773437584771    0.0856633489423831    0.0959747736760011 C
   0.4302065478884208    0.1679787538928116    0.0943726922030496 C
   0.4318274862126451    0.3337189663745360    0.0980485212178596 C
   0.4303597012273171    0.8371241179572251    0.1016808923776271 C
   0.8066987157147754    0.0911920159649219    0.0897826936689119 C
   0.6797836972077529    0.1704191175700612    0.0933768319528229 C
   0.8073812500053983    0.9261605106048205    0.0894134186473820 C
   0.6753911087156383    0.3362578946868517    0.0952346534428420 C
   0.8050385747330683    0.5960455594282570    0.0931089765582063 C
   0.8001636328951143    0.4266879219682053    0.0929755186784743 C
   0.6844693082270780    0.8407369728451085    0.0954914954855986 C
   0.4237460668630416    0.6770167072224945    0.1177904306791841 C
   0.5507917516098966    0.4110320025633151    0.1020335130969430 N
   0.6873793844623406    0.6837506954021372    0.0999677665577617 N
   0.5577217960415404    0.9199452427944274    0.0991190570290829 N
   0.3083766211903516    0.4214294740709169    0.0984431323813788 N
   0.5684415457556581    0.5814600592654119    0.1691646474589967 Cr
