Title
1.0
   4.9440799999999996    0.0000000000000000    0.0000000000000000
   0.0000000000000000    8.5647549999999999    0.0000000000000000
   0.0000000000000000    0.0000000000000000   20.0000000000000000
C Fe
15 1
direct
   0.2500000000000000    0.2075588468356455    0.0934048143688599 C
  -0.0017706058850151    0.2891672011746583    0.0971605269068692 C
   0.2500000000000000    0.0421678968011429    0.0880699587983274 C
  -0.0015205769173409    0.7941472097108432    0.0978525159306300 C
  -0.0008636868191599    0.9592551182864206    0.0885250359180604 C
   0.7500000000000000    0.2072370579402774    0.0901758681238307 C
   0.5017706058850152    0.2891672011746583    0.0971605269068692 C
   0.7500000000000000    0.0414273982890081    0.0861762534130667 C
   0.7500000000000000    0.7100858851464699    0.1021981510298332 C
   0.5015205769173408    0.7941472097108432    0.0978525159306300 C
   0.7500000000000000    0.5414325038572366    0.1066214184725024 C
   0.5008636868191598    0.9592551182864206    0.0885250359180604 C
   0.5112174663102413    0.4516948719484060    0.1112029537223394 C
  -0.0112174663102414    0.4516948719484060    0.1112029537223394 C
   0.2500000000000000    0.7189357481325725    0.1100191073875854 C
   0.2500000000000000    0.5426258607569922    0.1563643634502039 Fe
