Title
1.0
   8.5490480000000009    0.0000000000000000    0.0000000000000000
   0.0000000000000000    8.5490480000000009    0.0000000000000000
   0.0000000000000000    0.0000000000000000   20.0000000000000000
C N Os
20 4 1
direct
   0.9084424970841459    0.2067993604051084    0.0975822929462231 C
   0.9052479656537533    0.5036130336280431    0.0976897731088490 C
   0.9106433066252829    0.8019216272303781    0.0974060221447861 C
   0.2002513598718142    0.0831824336320305    0.0976510067083041 C
   0.0750109707659873    0.2059424651603399    0.0975647063339421 C
   0.1567552398648223    0.6515927917741604    0.0976967204818652 C
   0.0755437085997927    0.5021274751760851    0.0976696994157252 C
   0.1562488423886717    0.3552038225122105    0.0976840744019029 C
   0.0785447865207101    0.7984163679788682    0.0975048182977764 C
   0.4937540849253907    0.0834319362102188    0.0978549020262942 C
   0.3468201463489545    0.1625052093362200    0.0978122878270372 C
   0.4934195581211270    0.9136414553982394    0.0978047695713560 C
   0.3448264444288884    0.8338043204408800    0.0978882515847317 C
   0.7874113277289962    0.0863386497338050    0.0975714261600128 C
   0.6405535500792978    0.1656900545011557    0.0978507043806065 C
   0.7889799121285400    0.9197377172892499    0.0974498566631118 C
   0.8289866140812855    0.6531571117343811    0.0976158356897227 C
   0.8253840126245606    0.3549423345389107    0.0977945428641607 C
   0.6421332267053341    0.8352889907419220    0.0976967910181837 C
   0.3265089119770014    0.3345539106717837    0.0979405954311128 C
   0.3197443101504774    0.6741463498364755    0.0980270149985901 N
   0.6620130787091721    0.3304209869558326    0.0980800877060503 N
   0.6671286618003038    0.6747177724850082    0.0978840124294921 N
   0.1993592016282803    0.9166061673735769    0.0976948477724515 N
   0.4917002811874018    0.4970076552551362    0.0982899600376848 Os
