Title
1.0
   9.8694509999999998    0.0000000000000000    0.0000000000000000
   0.0000000000000000    8.5490480000000009    0.0000000000000000
   0.0000000000000000    0.0000000000000000   20.0000000000000000
C N Pd
29 2 1
direct
   0.0563926643024013    0.0898887885809030    0.0846073482543486 C
   0.9316835737176301    0.1727489588597053    0.0862718512446957 C
   0.0573177131333758    0.9229077752218849    0.0833908141079993 C
   0.9312960732362107    0.3401445986457979    0.0901433608825568 C
   0.0570435087718317    0.5903870060780241    0.0873421368675233 C
   0.9316096327789947    0.6725800666947302    0.0883541016279521 C
   0.0570816430286900    0.4227377798587561    0.0890685328270851 C
   0.9316904364775689    0.8389457622486141    0.0851221505390275 C
   0.3059614192087586    0.0891208176378042    0.0882301795950087 C
   0.1822272991898463    0.1727986829815366    0.0878098253746582 C
   0.1823952683661834    0.3395332108415752    0.0914459489823951 C
   0.3064341704006021    0.5880695215856172    0.0999348984723876 C
   0.1825054956350732    0.6738591816707753    0.0884492974484989 C
   0.3068925316361321    0.4210308380654808    0.1010484028758693 C
   0.1818578996658945    0.8403971256107347    0.0856656115721154 C
   0.5553648320455183    0.0880735966232642    0.0914945671403102 C
   0.5541361571166232    0.9251004851998218    0.0947408224054122 C
   0.4308555593537551    0.3321316406838474    0.1071053306182543 C
   0.4281036989465982    0.8423533565600263    0.0987353179425439 C
   0.8062845145171447    0.0889297053347987    0.0856525269217128 C
   0.6805683813036298    0.1708482124896755    0.0911624870822248 C
   0.8067649715536488    0.9234402232269346    0.0862801860742685 C
   0.6823609424428688    0.3341192339767697    0.1039038011535090 C
   0.8064757825611153    0.5894233904280090    0.0988103761142351 C
   0.8061191641327813    0.4210956200424358    0.0985583657735317 C
   0.6812114931575587    0.8421741385271735    0.0959100800794279 C
   0.4205645295397214    0.6842067328569487    0.1111817426471483 C
   0.5561978026643043    0.3969880111754562    0.1234183460353816 C
   0.6901958997353683    0.6818165757571105    0.1092022488383197 C
   0.3055752544753533    0.9264904925949897    0.0876237501414386 N
   0.4287426945187506    0.1686925104623996    0.0923030004273250 N
   0.5577279923860734    0.5992119594784023    0.1727075899328513 Pd
