Title
1.0
   4.9440799999999996    0.0000000000000000    0.0000000000000000
   0.0000000000000000   17.1295089999999988    0.0000000000000000
   0.0000000000000000    0.0000000000000000   20.0000000000000000
C N Zn
29 1 1
direct
  -0.0022624554251083    0.1047523475176742    0.2969802956277569 C
   0.2463237630541079    0.1473778691412892    0.2980675367665944 C
   0.2453883263587635    0.2308235540835235    0.2998121596427505 C
  -0.0070222155803830    0.2725543635872506    0.2980956351341106 C
   0.0032720631658630    0.6031287124235095    0.2981983333934490 C
   0.2524353251766408    0.7283495886029309    0.2987806135541765 C
   0.0007081744725614    0.8541487993474515    0.2969532699987743 C
   0.2502477498547372    0.8960810325045391    0.2968447940491327 C
   0.2490795463702631    0.9793774011518649    0.2965880731818971 C
   0.0018890293758442    0.7706887948252777    0.2975927848750573 C
   0.4970679871676424    0.1049635810955905    0.2980696156263107 C
   0.7476044880807099    0.1461618487226334    0.2983734435520582 C
   0.7456570903755776    0.2295657068926642    0.3003827402812192 C
   0.4984230768933421    0.0214618407663652    0.2970033759999953 C
   0.7512298074842660    0.3914703455003844    0.3030745757488074 C
   0.7574090283649305    0.4785243924250103    0.3022712952230553 C
   0.4967434084369021    0.2720131539218161    0.3043034911808994 C
   0.5045232215527863    0.6029516236949697    0.3032036406278691 C
   0.7523785392870407    0.7291728809410415    0.2985456885938809 C
   0.5007052636060115    0.8541183889060909    0.2973461817960886 C
   0.7503017490778370    0.8959575404816236    0.2968538166074037 C
   0.7490439831729336    0.9796191120994100    0.2966557557132755 C
   0.5020653805248595    0.7707649959705255    0.2985241083707188 C
   0.7537601681177837    0.6456937604422595    0.2997534152846719 C
   0.2534272873802454    0.6454004385844819    0.3002088823741387 C
  -0.0011204160249805    0.0212987414869450    0.2964791349061053 C
   0.5192013257511928    0.5213978134937391    0.3091019505494447 C
   0.9949677178272347    0.5210957949376944    0.2953549691832335 C
   0.5101605980594810    0.3535760064162212    0.3125258737859324 C
  -0.0156381147313276    0.3523913540497864    0.2934805642008187 N
   0.2520361027722435    0.4364602159854324    0.3056339841703252 Zn
