Title
1.0
   8.5490480000000009    0.0000000000000000    0.0000000000000000
   0.0000000000000000    8.5490480000000009    0.0000000000000000
   0.0000000000000000    0.0000000000000000   20.0000000000000000
C N Cu
21 3 1
direct
   0.9087510933868731    0.2049675243962360    0.0976144058398813 C
   0.9025735699468762    0.5029007703033660    0.0977609933680708 C
   0.9109295796379916    0.8014859015553920    0.0976235363221994 C
   0.1994105003604733    0.0832278209063034    0.0978568773509473 C
   0.0754983501045667    0.2035261460372207    0.0977228044451610 C
   0.1573574551911547    0.6470609522205171    0.0976384255215297 C
   0.0721694246853374    0.5015609980562495    0.0976745363895296 C
   0.1558335773748539    0.3563595545104711    0.0977202737566982 C
   0.0792390952575949    0.7976077826296148    0.0976881134289452 C
   0.4953514510037555    0.0867169246995111    0.0977798742947859 C
   0.3490358747397757    0.1670976416769523    0.0978682301796954 C
   0.4949102038642573    0.9168231715246431    0.0977422409109811 C
   0.3496125755254847    0.8326277926609144    0.0977822356947695 C
   0.7887222852428097    0.0864278942009554    0.0975254516614944 C
   0.6416057584249777    0.1677917197543601    0.0977315119622249 C
   0.7898240425883112    0.9192076051324247    0.0975416953946797 C
   0.8254015912223280    0.6515576887575366    0.0978105770978110 C
   0.8229611611129047    0.3551835029800924    0.0978122322583034 C
   0.6419841435722322    0.8363786730069387    0.0977304540637238 C
   0.3213191585014959    0.3342876140634459    0.0978377300943325 C
   0.3230054559034906    0.6685244163058636    0.0976554764940372 C
   0.6631413697032925    0.3308211522181334    0.0979666987240656 N
   0.6646292148812859    0.6747422495501461    0.0979894779297327 N
   0.1999352555373283    0.9161008591347671    0.0978743265433557 N
   0.4922098122305412    0.5018036437179658    0.0977568202730177 Cu
