Title
1.0
   9.8694509999999998    0.0000000000000000    0.0000000000000000
   0.0000000000000000    8.5490480000000009    0.0000000000000000
   0.0000000000000000    0.0000000000000000   20.0000000000000000
C N Ru
29 2 1
direct
   0.0566688496545341    0.0907591033600293    0.0831732843609078 C
   0.9307089943471353    0.1726286329093684    0.0864146300758329 C
   0.0557698948674599    0.9238145077920359    0.0829339177023285 C
   0.9307647972397139    0.3401446456491372    0.0910042568778275 C
   0.0565490093442346    0.5891862564879341    0.0871337033763154 C
   0.9318719911758149    0.6725121993200747    0.0902055744286790 C
   0.0568847476983736    0.4234149840739042    0.0885040499365275 C
   0.9307498299254238    0.8391135409931536    0.0861475618046702 C
   0.3058724428642390    0.0901940714738159    0.0861359683591821 C
   0.1821185274663526    0.1741281556288574    0.0854155952838417 C
   0.3057013834508671    0.9241213833538787    0.0861729866037633 C
   0.1833732955217375    0.3425313967902881    0.0893771356711220 C
   0.3046957132107026    0.5944819734275146    0.0984097414388828 C
   0.1808529112445313    0.6737601107146080    0.0879882712939477 C
   0.3082463528032243    0.4253397486694886    0.0978958305283859 C
   0.1806663416901238    0.8406917293606633    0.0850076795597969 C
   0.5556358020173525    0.0852299855360766    0.0953266481451381 C
   0.4319602203971689    0.1699484666295263    0.0932955799713898 C
   0.4327267559796031    0.3356357356812693    0.1030354274671436 C
   0.5571173325289176    0.4063918698303717    0.1207731979295125 C
   0.4281275486369098    0.8396803920076048    0.0965332757479805 C
   0.8071615418880030    0.0882479362400989    0.0879141019837857 C
   0.6811994014841621    0.1676560576558427    0.0955318885560728 C
   0.8051634418349538    0.9217249566504732    0.0879522805711220 C
   0.6823703792754788    0.3330298047902328    0.1062371464000642 C
   0.8094907103020944    0.5906200114156696    0.1037766758308717 C
   0.6914926653479976    0.6807299988137491    0.1192535984977343 C
   0.8072938979960074    0.4214336005755346    0.1019393135061839 C
   0.6821487814318994    0.8383375643228674    0.0991653398665084 C
   0.4199453040986301    0.6846087806758000    0.1118407687167714 N
   0.5540970840257204    0.9187443755814991    0.0973705224917985 N
   0.5522130502506394    0.5914040235886187    0.1718090470159568 Ru
