Title
1.0
   9.8694509999999998    0.0000000000000000    0.0000000000000000
   0.0000000000000000    8.5490480000000009    0.0000000000000000
   0.0000000000000000    0.0000000000000000   20.0000000000000000
C N Ru
27 3 1
direct
   0.0553355431299886    0.0903643461712128    0.0834643214627057 C
   0.9301025991189824    0.1729510098691449    0.0850483371296408 C
   0.0564652463450644    0.9238812189512643    0.0829752762180354 C
   0.9327754674736823    0.3403598994819331    0.0841030765476774 C
   0.0569214806993046    0.5893560301621531    0.0801945771294645 C
   0.9339397015807875    0.6752269036659969    0.0840257565312603 C
   0.0569938752487958    0.4234282548035097    0.0806122759170872 C
   0.9320507641684057    0.8414997227317857    0.0853728845425181 C
   0.3059128060505569    0.0903825862746862    0.0932627643322254 C
   0.1803921651804610    0.1721911439405781    0.0865694648460401 C
   0.3066477678340793    0.9217093823783288    0.0918075078515374 C
   0.1804699872022439    0.3391055909547107    0.0854551281298090 C
   0.3025636554395943    0.5905445145459018    0.0934850451228639 C
   0.1805057455469124    0.6730968779348304    0.0838056573861224 C
   0.3022700872089944    0.4204042206483151    0.0958716379319973 C
   0.1812603190238471    0.8404277991558213    0.0848398793604038 C
   0.5551815160347173    0.0892525773755044    0.1059384797212104 C
   0.4273744758413056    0.1765570254473440    0.1043036453264508 C
   0.5558050521167384    0.9176534691379963    0.1054395321059011 C
   0.4282114639418200    0.8328934077689367    0.1006472622954132 C
   0.8040664594019823    0.0907996079889024    0.0918175157785556 C
   0.6807465130487754    0.1763697072819826    0.1015294284147782 C
   0.8058089885638200    0.9220245228764070    0.0923408335748500 C
   0.6878504151685016    0.3456379263706981    0.1068927753860391 C
   0.8131666719001087    0.5934421234164169    0.0948785422531192 C
   0.8118798538009536    0.4250010148786187    0.0934793059105128 C
   0.6849722307412771    0.8331035923975131    0.1032135751082966 C
   0.4206197553046263    0.3400325270290252    0.1118549151025899 N
   0.6944111087824595    0.6709521751225943    0.1102731524858839 N
   0.4212483506407642    0.6707747101058175    0.1036162519000068 N
   0.5571849334604571    0.5014511111320820    0.1338461941970452 Ru
