Title
1.0
   9.8694509999999998    0.0000000000000000    0.0000000000000000
   0.0000000000000000    8.5490480000000009    0.0000000000000000
   0.0000000000000000    0.0000000000000000   20.0000000000000000
C N Mo
27 3 1
direct
   0.0553997785193005    0.0903695199655801    0.0858532339823537 C
   0.9298111502700928    0.1743038698465962    0.0861275404372840 C
   0.0570443509784809    0.9236021793910205    0.0855317536682496 C
   0.9317460200208887    0.3413466278989875    0.0856055572742310 C
   0.0572860943119051    0.5894823385306319    0.0834123073663740 C
   0.9342106523732273    0.6757226179513299    0.0855058435342268 C
   0.0565014784892087    0.4232346680478464    0.0838532856377424 C
   0.9323875929108132    0.8421320656187085    0.0866683128568358 C
   0.3058237443220295    0.0879348970795824    0.0940081766025672 C
   0.1801084117236804    0.1712851765071146    0.0890200386834318 C
   0.3074298769250536    0.9196753277406293    0.0926734987173954 C
   0.1797590111278060    0.3383625379009198    0.0880935061778905 C
   0.3039215625060900    0.5877597013584638    0.0937589304325931 C
   0.1810741406367245    0.6718212079336456    0.0866145275838970 C
   0.3028743875603656    0.4190172540282388    0.0965700928789396 C
   0.1815757225283127    0.8390940884134166    0.0873069957604603 C
   0.5540270743296781    0.0895262698949072    0.1021644113945098 C
   0.4275980024644966    0.1741351006405773    0.1027166536507360 C
   0.5560768842695814    0.9177704435674267    0.1019228889008173 C
   0.4306329984803496    0.8315108232039905    0.0990897793296032 C
   0.8038777346828336    0.0922483313313317    0.0904509715182689 C
   0.6787966089307258    0.1770794235230398    0.0974277946850834 C
   0.8064018780675968    0.9243910852447016    0.0911097257962321 C
   0.6841252301713526    0.3452138510671491    0.0998510762266102 C
   0.8117663373286474    0.5954103387594564    0.0931370740558322 C
   0.8085796452630416    0.4265717583070798    0.0915327940764922 C
   0.6849592646871747    0.8368753505361154    0.0999468137156075 C
   0.4208614980121431    0.3366454267235665    0.1111536448914119 N
   0.6939254973048726    0.6760200031582347    0.1069755758458478 N
   0.4252965584549039    0.6673775392149960    0.1010551521067381 N
   0.5592558123486322    0.5049551766147272    0.1418270422117784 Mo
