Title
1.0
   9.8694509999999998    0.0000000000000000    0.0000000000000000
   0.0000000000000000    8.5490480000000009    0.0000000000000000
   0.0000000000000000    0.0000000000000000   20.0000000000000000
C N Pd
26 5 1
direct
   0.0561044031176639    0.0907208996566673    0.0869889196766712 C
   0.9310835832936512    0.1749156989250256    0.0864931859549752 C
   0.0578164089074766    0.9227421037516280    0.0882620800652337 C
   0.9286208147534978    0.3426748471910321    0.0871109381383493 C
   0.0566803544174119    0.5912239439161744    0.0908352823008854 C
   0.0552045960479138    0.4243552276712297    0.0897000890787250 C
   0.9340180173356376    0.8394004884953832    0.0888802676424079 C
   0.3066828807287744    0.0868887729907273    0.0908447253585546 C
   0.1825172929333002    0.1723563280397699    0.0885677660610629 C
   0.1822838721465562    0.3397679889910951    0.0911095117635424 C
   0.3057449332837622    0.5874277963610083    0.1059119180248881 C
   0.1819426071398588    0.6737220619502100    0.0951999500737029 C
   0.3080462972498587    0.4209248461412330    0.0980234689396301 C
   0.1835581395322183    0.8402331447527761    0.0920774553745201 C
   0.5571513630210368    0.0848235219747001    0.0940875130330822 C
   0.5567432861473277    0.9197060566578740    0.1010233095534961 C
   0.4346488002073153    0.3330019841749062    0.0944224842201577 C
   0.4289201667115636    0.8377640451433540    0.1082747699981923 C
   0.8067874543186931    0.0892323051824212    0.0877998315458043 C
   0.6798164169151322    0.1707173242896984    0.0892298082965438 C
   0.8081515589893619    0.9231551942659890    0.0899230320324698 C
   0.6762318913150617    0.3386510897749714    0.0886672531421778 C
   0.8051369885982563    0.5967024869906614    0.0907853282589819 C
   0.8016133153816325    0.4267189156568434    0.0875657490015074 C
   0.6847462544909024    0.8386814856674822    0.0964863850383282 C
   0.4184034672602900    0.6812146134695678    0.1259793642005188 C
   0.5516605333764989    0.4091714330904017    0.0922484787740641 N
   0.6907440171331645    0.6784986344142325    0.0976259774637081 N
   0.3065699746964736    0.9229270143046659    0.0929798391814010 N
   0.4300686275418545    0.1656311033116676    0.0935746983260924 N
   0.9333286806459877    0.6740820562771141    0.0895039990843395 N
   0.5586120023618720    0.5922125865194905    0.1854916203960019 Pd
