Title
1.0
   4.9440799999999996    0.0000000000000000    0.0000000000000000
   0.0000000000000000   17.1295089999999988    0.0000000000000000
   0.0000000000000000    0.0000000000000000   20.0000000000000000
C N Hf
29 2 1
direct
  -0.0000894808884782    0.1045302226174357    0.2916623187925430 C
   0.2499194025933459    0.1462545231029937    0.2960280194088744 C
   0.2499422202135850    0.2286884378744063    0.3064390366775949 C
   0.0034683916861307    0.3508445305187915    0.3246307121571267 C
  -0.0010828528303325    0.2702622441169989    0.3107035815356893 C
  -0.0035489676878856    0.6032150918878620    0.2962962637503999 C
   0.2499096889262793    0.7282150720103981    0.2876145680535275 C
   0.0002496934405949    0.8540006355361738    0.2829669722465352 C
   0.2498830970024100    0.8959790661777886    0.2831277419072917 C
   0.2498817543751431    0.9794877071251142    0.2846961308367570 C
   0.0005459283968571    0.7704252812553656    0.2847719859199065 C
   0.4999277061992858    0.1045254356177013    0.2916652551225764 C
   0.7499165807169896    0.1463831417137703    0.2948214025540528 C
   0.7499401413837978    0.2288072991479029    0.3033538618455155 C
   0.4999689980244547    0.0213133158300242    0.2862395488089283 C
   0.4963195106449528    0.3508414258369601    0.3246384711930281 C
   0.7499041927610942    0.4775656591472163    0.3073311987220840 C
   0.5009458935979944    0.2702586836560542    0.3107173019213182 C
   0.5033009230401869    0.6032074579257981    0.2963144861975162 C
   0.7498748506962515    0.7289710821226897    0.2855835320986967 C
   0.4995487418796825    0.8540099423211310    0.2829634242695028 C
   0.7499092699108374    0.8958304041944588    0.2827036484042889 C
   0.7499022393573223    0.9793654004174770    0.2842966771835628 C
   0.4992351658388317    0.7704407366134284    0.2847719007695673 C
   0.7498653160476085    0.6459870358836481    0.2902632712200552 C
   0.2498909624300776    0.6445557481780713    0.2942208511399326 C
  -0.0001910504858894    0.0213190734227743    0.2862406827105498 C
   0.5103085396139299    0.5203915424824767    0.3079836126698733 C
   0.9895075281392740    0.5203929342371452    0.3079324177319225 C
   0.2498833392186638    0.3871544513259830    0.3389498853938177 N
   0.7498896876741513    0.3945928696325539    0.3264247107630806 N
   0.2498955880828607    0.5007345480694019    0.3862115279938367 Hf
