Title
1.0
   8.5490480000000009    0.0000000000000000    0.0000000000000000
   0.0000000000000000    8.5490480000000009    0.0000000000000000
   0.0000000000000000    0.0000000000000000   20.0000000000000000
C N Pd
21 3 1
direct
   0.9109706555943300    0.2060295120977214    0.0954434749761802 C
   0.9042834842215792    0.5032282166869830    0.0952987459594906 C
   0.9098460746575657    0.7988862021877653    0.0954703764834047 C
   0.1996603668331669    0.0840743036645546    0.0954776378272772 C
   0.0752908168064675    0.2084170958962531    0.0954507474327318 C
   0.1972943889346287    0.9197444389384748    0.0954816972657897 C
   0.1562242977471863    0.6514499094337645    0.0953340814189671 C
   0.0753609940995528    0.5036111705092008    0.0953187797715595 C
   0.1571010027610072    0.3577188299686686    0.0953589675813749 C
   0.0755104154077277    0.7986008631119160    0.0954703192181334 C
   0.4947920116175283    0.0841710687774292    0.0953605412557427 C
   0.3489258777542950    0.1659299571066158    0.0953872668207590 C
   0.4944210514571189    0.9130802789103160    0.0953484532606179 C
   0.3460084597250214    0.8334071801644540    0.0953478229487671 C
   0.7898290404307969    0.0842579435260763    0.0954579484570752 C
   0.6426547469290783    0.1650049656825997    0.0953150537823812 C
   0.7901242191138605    0.9186089692272011    0.0954704252776113 C
   0.8259900174496477    0.6510038120785463    0.0953061377748373 C
   0.8246515591160118    0.3547661084288513    0.0952992120250553 C
   0.6422050885399548    0.8347600992938962    0.0953171087134061 C
   0.3245606984837053    0.3333559628223868    0.0953075333776942 C
   0.3189131966660965    0.6738610717755197    0.0952078645435185 N
   0.6651054660501722    0.3276451769225413    0.0951745840919314 N
   0.6659673500183931    0.6747444426733276    0.0951643784501292 N
   0.4897207195851006    0.4984324201149501    0.0951358412855423 Pd
