Title
1.0
   4.9440799999999996    0.0000000000000000    0.0000000000000000
   0.0000000000000000    8.5647549999999999    0.0000000000000000
   0.0000000000000000    0.0000000000000000   20.0000000000000000
C N Hf
11 3 1
direct
   0.2472562972176578    0.2091401309191495    0.0959194885328573 C
  -0.0031321535748705    0.2938895145216212    0.0962188344318723 C
   0.2495721519658920    0.0376122239082434    0.0958335916608635 C
  -0.0005615932868984    0.9547543516376442    0.0955723644851149 C
   0.7486976936772199    0.2083210397579713    0.0926845302711558 C
   0.4972257199215688    0.2941044959237751    0.0954567523213601 C
   0.7508554003880228    0.0406715356548950    0.0928046859984997 C
   0.7545212623441435    0.7126039623482104    0.0989124566130379 C
   0.7506508330035154    0.5407854675916460    0.0993111765349537 C
   0.5022745004314655    0.9542806552752335    0.0960976188544908 C
   0.5039014898816698    0.4597898954714179    0.0996194700168898 C
  -0.0055594519667150    0.4572631238273933    0.1025188496284717 N
  -0.0051871327447220    0.7923086043664123    0.0994319583236962 N
   0.5115320176477011    0.7923117415801736    0.1014310518905404 N
   0.2479529650943489    0.6238442572162144    0.1461671704361996 Hf
