Title
1.0
   4.9440799999999996    0.0000000000000000    0.0000000000000000
   0.0000000000000000   17.1295089999999988    0.0000000000000000
   0.0000000000000000    0.0000000000000000   20.0000000000000000
C N Sc
28 3 1
direct
   0.0029190081604662    0.1042781634226150    0.2937000772230641 C
   0.2532801268579085    0.1461942635975506    0.2962694487645974 C
   0.2537806502795582    0.2294586652510104    0.3026802967754074 C
   0.0092989172578463    0.3522685228797855    0.3145451449867085 C
   0.0024915224580689    0.2709343909947227    0.3043925102056276 C
  -0.0051875669963541    0.6001149919742355    0.2925088494208079 C
   0.2502288875441547    0.7267160724232916    0.2926986417119331 C
   0.0023889101503779    0.8531373630291089    0.2907715020692103 C
   0.2521382602731658    0.8951002685469367    0.2909475824607062 C
   0.2525707901994609    0.9788306707459472    0.2912874837403209 C
   0.0024515031092464    0.7694290248024690    0.2913556028643969 C
   0.5028884981513596    0.1042005824210377    0.2940051505880910 C
   0.7527346774380533    0.1463860039078787    0.2950456601434172 C
   0.7528509897959921    0.2292909691875180    0.2996617290025265 C
   0.5027487662052696    0.0206663511605639    0.2917863780028329 C
   0.4979842139879362    0.3534958643738820    0.3168544775732539 C
   0.7538493433325124    0.4805028652525872    0.3050399206291035 C
   0.5044624980202659    0.2716174188322445    0.3058592418951553 C
   0.5052557787826384    0.6029528910188152    0.3002446916878256 C
   0.7518373890787131    0.7280939408841786    0.2924742640020442 C
   0.5011523712617928    0.8529541228673404    0.2913143481506456 C
   0.7518670688670689    0.8948843601865977    0.2907876138126423 C
   0.7524302559306740    0.9785405568115934    0.2909803161770205 C
   0.5000101062737069    0.7690823641023015    0.2924490949045313 C
   0.7507568918347263    0.6450763807201378    0.2946501443423901 C
   0.2503164387434716    0.6416687556807532    0.2944524400054474 C
   0.0025533348766435    0.0207225991311094    0.2915946684369117 C
   0.5256934143802640    0.5226428461589422    0.3211777121526673 C
   0.9855731851106110    0.5168561083272345    0.2788588107743540 N
   0.2516903173127313    0.3901595880873533    0.3285373125758114 N
   0.7560664858705386    0.3964595775821999    0.3150166373082306 N
   0.1677399654511363    0.5058344556380511    0.3706172476122698 Sc
