Title
1.0
   9.8694509999999998    0.0000000000000000    0.0000000000000000
   0.0000000000000000    8.5490480000000009    0.0000000000000000
   0.0000000000000000    0.0000000000000000   20.0000000000000000
C Ni
30 1
direct
   0.0562449658212062    0.0890843918773746    0.0888785126879506 C
   0.9312209437566068    0.1718309367337613    0.0900171403192313 C
   0.0562265709534581    0.9232064111812668    0.0888717806311771 C
   0.9324209357162059    0.3384019030419292    0.0890560006766299 C
   0.0562408452927194    0.5896760315829235    0.0872806417316317 C
   0.9324410797026629    0.6738530653531090    0.0890552749600840 C
   0.0562353668856086    0.4225539426163619    0.0872809206537081 C
   0.9312211685200993    0.8404446533019146    0.0900203236329975 C
   0.3065864199991172    0.0900955460771641    0.0943340844933437 C
   0.1812633870693730    0.1718493840479247    0.0901747160576044 C
   0.3065580542700034    0.9222501804437322    0.0943443486566143 C
   0.1800435424085822    0.3384242823750330    0.0892590646361217 C
   0.3031425835019123    0.5907052064465119    0.0941089022854406 C
   0.1800299788084892    0.6738470036966981    0.0892604712236953 C
   0.3031617409222778    0.4215484093287692    0.0940978606414202 C
   0.1812364798954431    0.8404506923652941    0.0901839814315605 C
   0.5562461674708538    0.0893986358930112    0.1000575933610524 C
   0.4308540183778123    0.1766496026464012    0.0989513591216653 C
   0.5562532057188321    0.9228448987576880    0.1000732945497384 C
   0.4272965844426519    0.3426856038791136    0.1015789018489049 C
   0.4272279726571422    0.6696923796144746    0.1015887648350820 C
   0.4308177144291573    0.8356877337483836    0.0989748000643108 C
   0.8058780164923093    0.0900783509758120    0.0941127113671548 C
   0.6816013283874769    0.1766622811772259    0.0987007693222252 C
   0.8058978482150284    0.9222267425250054    0.0941192266739487 C
   0.6851280732592158    0.3427203132272699    0.1012168395405167 C
   0.8093094072529124    0.5907149304684060    0.0937564048754487 C
   0.6852080213267653    0.6696347692479988    0.1012311230101957 C
   0.8092736561690005    0.4215575767306266    0.0937505758273372 C
   0.6816477553293722    0.8356545207742553    0.0987226541189038 C
   0.5562211669477121    0.5064446198645740    0.1179059567643455 Ni
