Title
1.0
   4.9440799999999996    0.0000000000000000    0.0000000000000000
   0.0000000000000000    8.5647549999999999    0.0000000000000000
   0.0000000000000000    0.0000000000000000   20.0000000000000000
C N Cu
12 3 1
direct
  -0.0042546727646603    0.2936917318832460    0.0873505343911757 C
   0.2499285465973915    0.0466423053515050    0.0878290575150366 C
   0.0041167575554585    0.7973135109728842    0.0989260072021629 C
  -0.0000872224840448    0.9626718970353969    0.0861792503746363 C
   0.7493448193168645    0.2073542219528744    0.0845037953080648 C
   0.5058638394286078    0.2909619362249961    0.0988597185645636 C
   0.7493770637995660    0.0423501795358398    0.0831358554488638 C
   0.7517664162381673    0.7068062616967753    0.1039636974239740 C
   0.4957828561338695    0.7953481396956326    0.1012752030557382 C
   0.7585199532565036    0.5298789265316650    0.1080457196713929 C
   0.4999514603637160    0.9618782073036762    0.0890656129487228 C
   0.5262916660322283    0.4396246708015496    0.1273937044714344 C
  -0.0096428035727529    0.4502910024914856    0.0883507733326776 N
   0.2474239454316349    0.7289672166798589    0.1125855566321216 N
   0.2504636101286141    0.2107968046307182    0.0905400533270061 N
   0.2251537645388354    0.5354229872118963    0.1645074603324381 Cu
