Title
1.0
   9.8694509999999998    0.0000000000000000    0.0000000000000000
   0.0000000000000000    8.5490480000000009    0.0000000000000000
   0.0000000000000000    0.0000000000000000   20.0000000000000000
C N Zn
26 4 1
direct
   0.0552354242184958    0.0879671078927645    0.0907648968024587 C
   0.9312841709753349    0.1718423903614886    0.0923331109549322 C
   0.0572332556033076    0.9211012667876520    0.0906499825962573 C
   0.9339746731248944    0.3388233827860096    0.0907843456706586 C
   0.0567319961018561    0.5909755203124283    0.0874190388649876 C
   0.0564540790800319    0.4237091130069451    0.0874353709984377 C
   0.9317856266563980    0.8383196930596019    0.0905565347896729 C
   0.3059487767848326    0.0881475086112863    0.0945305700248186 C
   0.1805474415548235    0.1704079938464928    0.0904148679833027 C
   0.1795624426591623    0.3378122758508805    0.0885994777252903 C
   0.3043701896249812    0.5874378806462518    0.0944068449873301 C
   0.1806334068083715    0.6734622550355894    0.0880845675636201 C
   0.3030981731005197    0.4180965304251208    0.0908058002947097 C
   0.1823786764493797    0.8397053660627722    0.0913952703505410 C
   0.4285217839487031    0.1756980765898602    0.0954275281407466 C
   0.5539397992757235    0.9241272376746451    0.0996036461280840 C
   0.4218930767047808    0.6724645268570740    0.1121562824362622 C
   0.4295077447619926    0.8379184699515622    0.1038868378584166 C
   0.8052881887239193    0.0894923936930767    0.0951833685411384 C
   0.6817696094880874    0.1783881275375842    0.1017453528993160 C
   0.8063712404090860    0.9218015409969297    0.0932292817269255 C
   0.6903278639261097    0.3419173099922395    0.1102764012014964 C
   0.8109683844409197    0.5923110347463046    0.0925560883128200 C
   0.6887373002615789    0.6734635136748109    0.0883252555397104 C
   0.8127074116119896    0.4216823482043131    0.0975346130866423 C
   0.6794715254193041    0.8392154589855348    0.0941716513646187 C
   0.9342628868064180    0.6733394727874973    0.0904864676739936 N
   0.5549373601595839    0.0954720403810271    0.0995631618827751 N
   0.4228169812393494    0.3354596730439841    0.0901197323789048 N
   0.3050648735098102    0.9220866381690322    0.0958849903715053 N
   0.5573106365702718    0.5082288520292579    0.1126336608496748 Zn
