Title
1.0
   8.5490480000000009    0.0000000000000000    0.0000000000000000
   0.0000000000000000    8.5490480000000009    0.0000000000000000
   0.0000000000000000    0.0000000000000000   20.0000000000000000
C N Re
21 3 1
direct
   0.9087491366440127    0.2052586000660768    0.0975114022401731 C
   0.9038481136889669    0.5026631716742999    0.0976812329791155 C
   0.9107925981172240    0.8015162951048664    0.0975062124088895 C
   0.1995842082005293    0.0827215650594780    0.0976868331924602 C
   0.0753249260230334    0.2045409751905077    0.0975627968233748 C
   0.1550498833878657    0.6494474310648853    0.0976329258929794 C
   0.0726154456894337    0.5014212694918943    0.0976409790336768 C
   0.1535343621597700    0.3540685850448005    0.0976950034728567 C
   0.0785978053432450    0.7970114491696503    0.0975494008879888 C
   0.4945148680679658    0.0863635659948804    0.0977898723093810 C
   0.3468833525421061    0.1634519373571049    0.0978542935105879 C
   0.4938006533240255    0.9173048854827930    0.0977344348003298 C
   0.3470710743962971    0.8374246650970165    0.0977821427241984 C
   0.7883998435028382    0.0861250282806844    0.0974940776370176 C
   0.6421693582271703    0.1659306423510764    0.0977674745417305 C
   0.7893296339175678    0.9191595780331577    0.0974677841255872 C
   0.8284419177054155    0.6527989250278744    0.0976861384243505 C
   0.8266846123327891    0.3531776473054102    0.0977192138856327 C
   0.6426185654802359    0.8377192423402550    0.0976740451767916 C
   0.3232416072714964    0.3335045411702030    0.0980605806916452 C
   0.3236564600980945    0.6705605593743279    0.0979210189589676 C
   0.6652758681129203    0.3286442686559874    0.0980238350853701 N
   0.6668486401869929    0.6764187599606846    0.0979061455731347 N
   0.2001629553307231    0.9177942170516842    0.0977040656931814 N
   0.4882161102492737    0.4997621946504208    0.0986530899305520 Re
