Title
1.0
   9.8694509999999998    0.0000000000000000    0.0000000000000000
   0.0000000000000000    8.5490480000000009    0.0000000000000000
   0.0000000000000000    0.0000000000000000   20.0000000000000000
C N Cr
26 5 1
direct
   0.0561839661296821    0.0918674368172762    0.0883628019033459 C
   0.9310493816669559    0.1743831094555759    0.0897634199216028 C
   0.0573968325749273    0.9244505602996630    0.0880210873530410 C
   0.9298623821065415    0.3421063436505646    0.0927845655473160 C
   0.0568995518641638    0.5906526062699182    0.0896647114460544 C
   0.9325055160307650    0.6735315022576202    0.0922476638663210 C
   0.0565994992011673    0.4231747153290671    0.0908728119699425 C
   0.9329641203220027    0.8401383457202304    0.0903584106403336 C
   0.3062214721548165    0.0883140056534329    0.0902798736491403 C
   0.1828884330726159    0.1736943373937188    0.0895562573558637 C
   0.1835403050029451    0.3406424356556942    0.0907795130113406 C
   0.3069521164771939    0.5921475313950412    0.0934885380748189 C
   0.1813519869560058    0.6746226112413763    0.0893307147168470 C
   0.3105483084455169    0.4234373434319448    0.0938560709849153 C
   0.1809984167438808    0.8408818419897467    0.0884835518819284 C
   0.5563313558591488    0.0839536940524804    0.0943571806244449 C
   0.5549030310416599    0.9183133519944719    0.0973373184873814 C
   0.4341829381652238    0.3327882277215252    0.0974034998119723 C
   0.4269525668593817    0.8367229604835704    0.0949373098279384 C
   0.8062193041338919    0.0889373738788406    0.0898887630401320 C
   0.6796619634959113    0.1693220789320762    0.0931084944440999 C
   0.8076700643469907    0.9234188748338857    0.0914209380838249 C
   0.6783422818298679    0.3351808912881196    0.0991318975632677 C
   0.8071628829661204    0.5938914673097799    0.1010798933343580 C
   0.8021228956833115    0.4247467442273016    0.0988037664564365 C
   0.6848665177493627    0.8379066899812015    0.0997863879210246 C
   0.4225398274951290    0.6813366722875246    0.0987154332711093 N
   0.5539281006434827    0.4049550982692258    0.1065973992597007 N
   0.6921651263283586    0.6807826191418986    0.1116407299543143 N
   0.3056990177333604    0.9251499833145892    0.0898922209177490 N
   0.4296708727223322    0.1666467330660788    0.0928166465764419 N
   0.5512579641972912    0.5921478126565604    0.1709071281030089 Cr
