Title
1.0
   9.8694509999999998    0.0000000000000000    0.0000000000000000
   0.0000000000000000    8.5490480000000009    0.0000000000000000
   0.0000000000000000    0.0000000000000000   20.0000000000000000
C N Tc
30 1 1
direct
   0.0559030785906474    0.0901891295460869    0.0813816379714253 C
   0.9310117701596943    0.1734023906485056    0.0826554091768499 C
   0.0570070289281262    0.9235664200221487    0.0827092694683770 C
   0.9308551767493738    0.3404946675801637    0.0853528803372647 C
   0.0570345228715960    0.5897464099541182    0.0840902043543845 C
   0.9323736681735302    0.6725888335946287    0.0876345672438012 C
   0.0568311535217382    0.4231572971590913    0.0837480897289849 C
   0.9322438551152873    0.8396490886594260    0.0854322679135882 C
   0.3052233084161413    0.0879339625930790    0.0867544730097785 C
   0.1813267114888258    0.1717730577635274    0.0833175011972620 C
   0.1824921873205503    0.3394121096335442    0.0853546915568597 C
   0.3034091930838360    0.5898958709513996    0.0998253039750719 C
   0.1821142684821468    0.6734557911239790    0.0875385847578340 C
   0.3060763247147143    0.4220470884848500    0.0962804797923580 C
   0.1819737533466026    0.8406705363371952    0.0860925158895484 C
   0.5561660876737967    0.0873966159948083    0.0920720775136671 C
   0.4301834737081597    0.1698731869755054    0.0919301141273594 C
   0.5548819995608835    0.9225347982996098    0.0981520222801972 C
   0.4296388232002995    0.3344404610649096    0.1015649450098106 C
   0.4179752840440970    0.6809482354887149    0.1202065821104347 C
   0.5557874677721447    0.4071185824305789    0.1197304370559188 C
   0.4264682045540752    0.8424317858469293    0.1021537225937898 C
   0.8067313587144578    0.0893964671357930    0.0850647767696603 C
   0.6816466988345734    0.1714476930652318    0.0908476449567234 C
   0.8066396527097349    0.9231424349674467    0.0878035497557564 C
   0.6821026159785640    0.3355261571018925    0.1012215659377576 C
   0.8100356895048481    0.5902489551179086    0.0996541416016119 C
   0.6931033420017644    0.6800598924790232    0.1180295900704282 C
   0.8066318112157752    0.4226136731187790    0.0962823550188747 C
   0.6829626604182024    0.8412340610734055    0.0999429198402543 C
   0.3052401219648571    0.9235537733132784    0.0895579235152933 N
   0.5575677071809634    0.5902965724744482    0.1732927554691087 Tc
