Title
1.0
   4.9440799999999996    0.0000000000000000    0.0000000000000000
   0.0000000000000000   17.1295089999999988    0.0000000000000000
   0.0000000000000000    0.0000000000000000   20.0000000000000000
C N Sc
25 5 1
direct
   0.0008399406499323    0.1059711661941358    0.2959628689538306 C
   0.2497503833688378    0.1489721832665159    0.2967771086762222 C
   0.2495153895089584    0.2340747275734568    0.2998296286345279 C
  -0.0023248169292886    0.2760519321145551    0.3038031236627720 C
  -0.0049469806298027    0.5999237245463301    0.3033156990020965 C
   0.2479220616727184    0.7253643755515629    0.2963304008163947 C
  -0.0000691676831423    0.8525189697631826    0.2948687366220711 C
   0.2489550556660858    0.8948565215748564    0.2945519263246892 C
   0.2494834241145269    0.9793506433507800    0.2945385820153011 C
  -0.0004440912730332    0.7677239468694914    0.2957722846548206 C
   0.4993533588400144    0.1062118575083334    0.2950326924387214 C
   0.7507963106246331    0.1482027935185837    0.2957320153341178 C
   0.7516479402464752    0.2318470331983414    0.2973862603315447 C
   0.4993228030817523    0.0217430841464603    0.2943572280399779 C
   0.7492963499691052    0.3960995589956096    0.3031314689796141 C
   0.7462969008923770    0.4804243141456144    0.3034543694704741 C
   0.5033663946611332    0.2749524984874367    0.2969777794309854 C
   0.4998583759994702    0.6003733003110887    0.2962630598433709 C
   0.7486086140291752    0.7268669426333070    0.2956744388586701 C
   0.4975401456857060    0.8523730306918020    0.2944764195634693 C
   0.7487955477857978    0.8945190366706570    0.2943953512603099 C
   0.7493347212892725    0.9791108768081740    0.2943284995702733 C
   0.4970867756518701    0.7675487360921702    0.2951106123139202 C
   0.7480012922576245    0.6435893073833593    0.2975494370777086 C
  -0.0001989206303209    0.0215636591186695    0.2948538768040098 C
   0.5056170157291633    0.5205967116503324    0.2898022081380058 N
   0.9871185062814966    0.5211164718642622    0.3187837768210171 N
   0.5101207051029006    0.3546722919160590    0.2938865396282878 N
  -0.0096728690813607    0.3558758866930778    0.3156446848498555 N
   0.2463177774758067    0.6399994615690812    0.2985244519666882 N
   0.2927180556421167    0.4388469557927087    0.3439444699162040 Sc
