Title
1.0
   8.5490480000000009    0.0000000000000000    0.0000000000000000
   0.0000000000000000    8.5490480000000009    0.0000000000000000
   0.0000000000000000    0.0000000000000000   20.0000000000000000
C N Ag
20 4 1
direct
   0.9085967796102586    0.2052215956759610    0.0977318996410471 C
   0.9054460711672191    0.5037706189034543    0.0975358797691669 C
   0.9104584518789018    0.8029831612238928    0.0976675989299061 C
   0.1971368323085001    0.0843372370284045    0.0976890321342144 C
   0.0766323973377218    0.2019845757019364    0.0976265728830204 C
   0.1561067596731554    0.6517197717084721    0.0972653475273441 C
   0.0754501035924277    0.5030464018367810    0.0975194314497364 C
   0.1582070058597551    0.3566917618812777    0.0980687177245031 C
   0.0785870599698409    0.8000733192237510    0.0975917600721651 C
   0.4943343085606315    0.0842252665442074    0.0977531500232774 C
   0.3482173136960655    0.1640218398522057    0.0982654948924396 C
   0.4932750614946911    0.9138478162081825    0.0975043897342330 C
   0.3441295610428506    0.8346403794458084    0.0973182294387852 C
   0.7894661131379992    0.0866518713828840    0.0978253774786831 C
   0.6408992761759034    0.1655690769889367    0.0977262808185636 C
   0.7900524734293188    0.9195842472802427    0.0977488516375764 C
   0.8289282688843690    0.6528449813734730    0.0977243543456145 C
   0.8257767360607393    0.3545454494607103    0.0975622283496529 C
   0.6420130338489608    0.8357669557450432    0.0977506728069507 C
   0.3206161983932623    0.3284226489965542    0.0998162453636922 C
   0.3168207124638117    0.6763290998251450    0.0967514257534946 N
   0.6650629746109422    0.3267314112742604    0.0973051524504183 N
   0.6689616657113283    0.6763786640527611    0.0981176397260642 N
   0.1980952898706689    0.9159857717904968    0.0976831229465188 N
   0.4921415512206694    0.4994160765951788    0.0981561441029049 Ag
