Title
1.0
   4.9440799999999996    0.0000000000000000    0.0000000000000000
   0.0000000000000000    8.5647549999999999    0.0000000000000000
   0.0000000000000000    0.0000000000000000   20.0000000000000000
C N Mn
13 1 1
direct
   0.0009534849822876    0.2923270413692440    0.0972369585315192 C
   0.2500000000000000    0.0435880601499563    0.0979515648682334 C
   0.0002644611906614    0.9585605545199941    0.0985274343963920 C
   0.7500000000000000    0.2075102320510441    0.0958560957890988 C
   0.4990465150177123    0.2923270413692440    0.0972369585315192 C
   0.7500000000000000    0.0413590164071623    0.0966998433504327 C
   0.7500000000000000    0.7107190158895732    0.1002890813765586 C
   0.7500000000000000    0.5366172826435094    0.0996626716311126 C
   0.4997355388093389    0.9585605545199941    0.0985274343963920 C
   0.5011005561115554    0.4561574825482927    0.1001362254277907 C
  -0.0011005561115554    0.4561574825482927    0.1001362254277907 C
  -0.0027678627684734    0.7925024637738527    0.1019054244977816 C
   0.5027678627684730    0.7925024637738527    0.1019054244977816 C
   0.2500000000000000    0.2074390663462293    0.0971338957652305 N
   0.2500000000000000    0.6253532420897612    0.1247747615123697 Mn
