Title
1.0
   4.9440799999999996    0.0000000000000000    0.0000000000000000
   0.0000000000000000    8.5647549999999999    0.0000000000000000
   0.0000000000000000    0.0000000000000000   20.0000000000000000
C N Sc
12 3 1
direct
  -0.0024908005031771    0.2909535287693322    0.0889937157106011 C
   0.2540088207129129    0.0435778280493077    0.0896825561235088 C
   0.0114186035796093    0.7953676246093009    0.0973587958655436 C
   0.0054686916657406    0.9611696774640996    0.0888422954287450 C
   0.7509019220240229    0.2060071956099034    0.0867467629013488 C
   0.5033605874475675    0.2916882618773745    0.0971570886395550 C
   0.7547171558399294    0.0414954313194163    0.0859952963422238 C
   0.7608432433934572    0.7045954463115603    0.1021366437563839 C
   0.5061954252615116    0.7951456068524908    0.0999915255967226 C
   0.7537590545087616    0.5321561281276831    0.1052072921316297 C
   0.5056477394503807    0.9606357532444487    0.0908379855643083 C
   0.5125894571954049    0.4470420308091632    0.1198280708829363 C
  -0.0060249189974757    0.4491966168567540    0.0893811045301174 N
   0.2595958604830604    0.7243157118023708    0.1073657478985795 N
   0.2512870644243224    0.2101216640621695    0.0913022778309430 N
   0.1787220935139723    0.5465314942346251    0.1716848407968624 Sc
