Title
1.0
   4.9440799999999996    0.0000000000000000    0.0000000000000000
   0.0000000000000000   17.1295089999999988    0.0000000000000000
   0.0000000000000000    0.0000000000000000   20.0000000000000000
C N Y
29 2 1
direct
   0.0036409677774869    0.1042651117775276    0.2845822515242513 C
   0.2541847601629898    0.1458811409560827    0.2882096593715985 C
   0.2556528677024368    0.2285484833544077    0.2978968000016801 C
   0.0095865579124627    0.3509896959612749    0.3175200434480929 C
   0.0048613682055175    0.2695611282190992    0.3026948411256299 C
  -0.0068450991684189    0.6044797529804605    0.3045828016518248 C
   0.2479962445047979    0.7284897782166385    0.2916638601814998 C
   0.0006210507244727    0.8538797939436156    0.2811652101883411 C
   0.2505385453807115    0.8957600275921597    0.2803407903648910 C
   0.2518692073433917    0.9791817351016258    0.2799127661612985 C
  -0.0005100515035452    0.7705657396835435    0.2859680095258887 C
   0.5035961620673991    0.1041371581459766    0.2847060264274134 C
   0.7539553493945883    0.1459080180135841    0.2874768710751456 C
   0.7553492760695010    0.2284363687306688    0.2961936393848610 C
   0.5023318806875690    0.0209514133789888    0.2806851681204561 C
   0.5054246871054134    0.3510784474770331    0.3193501303666981 C
   0.7587061944297878    0.3965557949937140    0.3234047501984830 C
   0.7491056236176091    0.4835806269785852    0.3222461371331246 C
   0.5071145098838969    0.2698144606478968    0.3034748259114062 C
   0.5011586238099459    0.6055637802936745    0.3116452772627012 C
   0.7485910426266468    0.7294143694821260    0.2892248726668016 C
   0.4997587790690337    0.8538034311690819    0.2816879348505569 C
   0.7506745931532403    0.8956299861069974    0.2799039902289156 C
   0.7519815760938806    0.9790424242048008    0.2795585811780854 C
   0.4980871889867270    0.7706708760989132    0.2870921757666646 C
   0.7465628116567451    0.6470681999309006    0.2984260235649395 C
   0.2478124957644021    0.6458603187082370    0.3039700010868449 C
   0.0023422538515004    0.0209822669700205    0.2805644709450306 C
   0.5119292040330065    0.5269302219267604    0.3349938232055474 C
   0.9868264128747826    0.5246399428389025    0.3107390570409851 N
   0.2577245717056359    0.3853500659406397    0.3309911671242310 N
   0.1861933440763914    0.4815304401760555    0.4016930429160635 Y
