Title
1.0
   4.9440799999999996    0.0000000000000000    0.0000000000000000
   0.0000000000000000    8.5647549999999999    0.0000000000000000
   0.0000000000000000    0.0000000000000000   20.0000000000000000
C Zr
15 1
direct
   0.2500000000000000    0.2065363764230882    0.0887462505023779 C
  -0.0022083803288476    0.2887954760821079    0.0926879863005658 C
   0.2500000000000000    0.0416514004599644    0.0838332647653842 C
  -0.0015445462194462    0.7964710368738690    0.0996899959996501 C
  -0.0014811204325510    0.9589562062699728    0.0850528931861750 C
   0.7500000000000000    0.2067645681719366    0.0828916380906613 C
   0.5022083803288476    0.2887954760821079    0.0926879863005658 C
   0.7500000000000000    0.0415326609955298    0.0804811465735605 C
   0.7500000000000000    0.7100168174939723    0.1054660339901471 C
   0.5015445462194463    0.7964710368738690    0.0996899959996501 C
   0.7500000000000000    0.5402497100361413    0.1100568405229269 C
   0.5014811204325512    0.9589562062699728    0.0850528931861750 C
   0.5093171687085726    0.4480893248784086    0.1106327498610580 C
  -0.0093171687085726    0.4480893248784086    0.1106327498610580 C
   0.2500000000000000    0.7262836455203933    0.1138180986331795 C
   0.2500000000000000    0.5423407326902567    0.1810914762268725 Zr
