Title
1.0
   9.8694509999999998    0.0000000000000000    0.0000000000000000
   0.0000000000000000    8.5490480000000009    0.0000000000000000
   0.0000000000000000    0.0000000000000000   20.0000000000000000
C N Pt
28 2 1
direct
   0.0557634275910767    0.0887393759811309    0.0817774432720070 C
   0.9309906214893025    0.1717414400072567    0.0839028273567568 C
   0.0569712703835373    0.9235572542640108    0.0818876655406040 C
   0.9338338654704010    0.3390157875429958    0.0830077443174867 C
   0.0561844037493110    0.5890131590012110    0.0795056214041355 C
   0.9335833207438486    0.6748176823237352    0.0831903357694425 C
   0.0567831056989883    0.4232886533175634    0.0794762659726068 C
   0.9321220256064856    0.8408346683180401    0.0843055480495148 C
   0.3050960312364330    0.0907327129820079    0.0944074708336076 C
   0.1804023736590346    0.1715351915354665    0.0858501013154950 C
   0.3058635582644652    0.9230008554544397    0.0943362579285448 C
   0.1790355427092340    0.3375886455724675    0.0853853360737158 C
   0.2981329598995249    0.5899481360250202    0.0981444650721841 C
   0.1787421634408335    0.6732155935952374    0.0855750900648054 C
   0.2982175658363523    0.4193246309160415    0.0979731361580917 C
   0.1815346682207816    0.8405276675368558    0.0858532257743476 C
   0.5568866082144097    0.0905832642189478    0.1072705486743537 C
   0.4272487685765587    0.1783639851667150    0.1052471835338053 C
   0.5558092563847730    0.9216838000492276    0.1074150440876685 C
   0.4195199817364024    0.6719299414952722    0.1106754211289360 C
   0.4279156615874325    0.8365236966038277    0.1051607304928730 C
   0.8064560920635290    0.0892897953941941    0.0919177067363112 C
   0.6844245429278741    0.1758359377978985    0.1026802828198829 C
   0.8072403308764925    0.9215784395279667    0.0922535077285156 C
   0.6926721620219163    0.3406738169616026    0.1067760617132109 C
   0.8138210934478337    0.5929424911409777    0.0940635887652130 C
   0.8138296559230013    0.4224229080741641    0.0937637927823678 C
   0.6851757235111204    0.8338914556323630    0.1033241410343602 C
   0.4172872027856310    0.3394839656380197    0.1101246126143802 N
   0.6950325797346939    0.6726062203821279    0.1069408633385721 N
   0.5565584362087309    0.5061838275432273    0.1187729796462446 Pt
