Title
1.0
   8.5490480000000009    0.0000000000000000    0.0000000000000000
   0.0000000000000000    8.5490480000000009    0.0000000000000000
   0.0000000000000000    0.0000000000000000   20.0000000000000000
C N Pt
18 6 1
direct
   0.9078766601874326    0.2063816918253840    0.0973972808364281 C
   0.9105698417156218    0.8002749567507901    0.0974586413554213 C
   0.1963730429935992    0.0843723123206580    0.0976494431705504 C
   0.0761488690905724    0.2016904762395028    0.0975006464117082 C
   0.1575097874899277    0.6504882519690838    0.0977680667232239 C
   0.0774947606217513    0.5006517896434614    0.0977773525037207 C
   0.1572174858692626    0.3517355026918658    0.0978061086324322 C
   0.0790070636241266    0.7982516033619247    0.0975826125511443 C
   0.4933734529995030    0.0882755752797776    0.0978731645500470 C
   0.3437270879642351    0.1671442733732822    0.0979328817088803 C
   0.4930540158770531    0.9163370710385051    0.0977751100428526 C
   0.3443047892275092    0.8343158594649996    0.0977735820977685 C
   0.7883126490665057    0.0879161326230133    0.0974710291402573 C
   0.6410407385436476    0.1698226130498116    0.0978174422462178 C
   0.7892009576077990    0.9183041109184586    0.0974788602381517 C
   0.8288716120148939    0.6503511376082811    0.0976795133367144 C
   0.8267885549343484    0.3551096219897861    0.0977242727161553 C
   0.6423893480024343    0.8350410836452011    0.0977191325620063 C
   0.9071057127304858    0.5023427724748313    0.0977505860536309 N
   0.3194564546693466    0.3288070154011943    0.0981430627224141 N
   0.3199547052426673    0.6752128447823791    0.0979602841359277 N
   0.6658231562549107    0.3336146079737200    0.0980574713040313 N
   0.6684124432138820    0.6714200518781663    0.0979000701546555 N
   0.1978518610578991    0.9148927829567288    0.0976442461383151 N
   0.4935469490005774    0.5020358607391932    0.0980641386673254 Pt
