Title
1.0
   8.5490480000000009    0.0000000000000000    0.0000000000000000
   0.0000000000000000    8.5490480000000009    0.0000000000000000
   0.0000000000000000    0.0000000000000000   20.0000000000000000
C N Cr
17 7 1
direct
   0.9073284703340853    0.2058963236221138    0.0974719270288063 C
   0.9104037295401894    0.8005251436310155    0.0975571706943111 C
   0.1974199329459527    0.0834268070320871    0.0976438462282187 C
   0.0770188422818631    0.2011889355046449    0.0975337418502650 C
   0.1576830115578723    0.6513127876967226    0.0977898602804553 C
   0.0785111232203953    0.5005284141948370    0.0977809384861030 C
   0.1576896693392619    0.3499307279911427    0.0977772306452472 C
   0.0790738852611224    0.7987245183807745    0.0976084376170671 C
   0.3445334423800492    0.1658587019982237    0.0978435794152264 C
   0.4925210316928761    0.9172509919670879    0.0978136079856971 C
   0.3441187442608261    0.8370014819201320    0.0978313382688005 C
   0.7872776533397523    0.0874272002457527    0.0975017566751427 C
   0.6410027342921644    0.1692567431940949    0.0977337196839251 C
   0.7895008380392147    0.9180184409021868    0.0975063748129829 C
   0.8288175079503742    0.6508725122543272    0.0977257163334918 C
   0.8266648457338180    0.3535686187743856    0.0976752443790340 C
   0.6427381213301753    0.8365356246728051    0.0977544370144543 C
   0.4932496297249850    0.0898315190128341    0.0978487515068270 N
   0.9061919990366110    0.5021423030268768    0.0977831675454446 N
   0.3215217520842175    0.3263873851554690    0.0980213743871286 N
   0.3205661850994183    0.6770553270386551    0.0979447069385685 N
   0.6638535654756973    0.3316126620071844    0.0979369469489596 N
   0.6678371353312081    0.6726875459656266    0.0979307193496166 N
   0.1970565073067488    0.9151839439597869    0.0976993489379073 N
   0.4928316424411142    0.5025653398512319    0.0979910569862992 Cr
