Title
1.0
   8.5490480000000009    0.0000000000000000    0.0000000000000000
   0.0000000000000000    8.5490480000000009    0.0000000000000000
   0.0000000000000000    0.0000000000000000   20.0000000000000000
C N Pt
19 5 1
direct
   0.9089195002133847    0.2049325365285857    0.0975492848037390 C
   0.9112932226754697    0.8008266735334396    0.0975721544906318 C
   0.1981745445003281    0.0835291262074467    0.0977666986231426 C
   0.0768708484339767    0.2009568220353732    0.0976616448365298 C
   0.1559543731547081    0.6485134148283425    0.0977506761316350 C
   0.0728886072433942    0.5004474865740330    0.0977699058295302 C
   0.1551418120537943    0.3548190167500510    0.0977280934831725 C
   0.0799869976298037    0.7992696216220337    0.0976913772043786 C
   0.3479191596107791    0.1674759464966830    0.0978337091586366 C
   0.4942025446140402    0.9181135838359242    0.0977819348886690 C
   0.3473142481144902    0.8351850080049223    0.0978404509532784 C
   0.7889079200401113    0.0861558785223325    0.0974751747948908 C
   0.6417996344928558    0.1669633748037324    0.0976983426376593 C
   0.7910746572096564    0.9185764381709015    0.0974974224109189 C
   0.8264978836354321    0.6517949571749532    0.0977731251883541 C
   0.8247074745908188    0.3530245746108683    0.0977469860508877 C
   0.6429595940903995    0.8380757137660944    0.0977220301373413 C
   0.3240935658326282    0.3352117436486657    0.0977880109050859 C
   0.3237508155226546    0.6690693880806851    0.0977899138551700 C
   0.4954305125225485    0.0884139665131271    0.0978241049593961 N
   0.9016311644873611    0.5018736001764830    0.0978319460573476 N
   0.6637604991586071    0.3289817596767662    0.0979102879252982 N
   0.6667537972343508    0.6750588039586555    0.0979464836681204 N
   0.1968396093139059    0.9155688475617881    0.0978219725731680 N
   0.4885390136244921    0.5019517169181319    0.0979332684329910 Pt
