Title
1.0
   4.9440799999999996    0.0000000000000000    0.0000000000000000
   0.0000000000000000   17.1295089999999988    0.0000000000000000
   0.0000000000000000    0.0000000000000000   20.0000000000000000
C N Ta
29 1 1
direct
  -0.0026049812534488    0.1053707724676451    0.2906911248329945 C
   0.2459628364730272    0.1476318229494694    0.2928581923376790 C
   0.2446451530613218    0.2312134114220435    0.2990563701356656 C
  -0.0057366275953366    0.2729133392364652    0.3029779162372795 C
   0.0053052453839653    0.6024697346794018    0.3027850413242918 C
   0.2528658018676776    0.7278970847808413    0.2934072651600801 C
   0.0010349578942338    0.8537649900086307    0.2888019871206506 C
   0.2505912950630955    0.8957721802502767    0.2881614838326662 C
   0.2491684321954390    0.9795904052766193    0.2879605075053205 C
   0.0023258495753796    0.7699238223903770    0.2912808350659288 C
   0.4968451413038913    0.1056333919766153    0.2905486975099841 C
   0.7472877686647580    0.1473368320766398    0.2922257697991843 C
   0.7452455627734527    0.2309303950179028    0.2975533077030262 C
   0.4984318405963641    0.0217920355720164    0.2883337783781496 C
   0.7502054645441533    0.3929013298778939    0.3142070523647498 C
   0.7582907691723730    0.4787499815001494    0.3165454774926368 C
   0.4943069806462080    0.2728345274624457    0.3015286236932211 C
   0.5038820084017229    0.6020861306965561    0.3038254060706500 C
   0.7527272819942125    0.7279317362664449    0.2931365128507671 C
   0.5010158720831448    0.8537261837088309    0.2888737308813050 C
   0.7505191139218359    0.8957737184968170    0.2881109367093951 C
   0.7490073531538617    0.9796836730514863    0.2878382817401398 C
   0.5023865182305580    0.7699906454244246    0.2914132527323363 C
   0.7540762573343173    0.6441958584231671    0.2986269636891629 C
   0.2541776190196799    0.6445911455763170    0.2996087745878102 C
  -0.0012164814285481    0.0215681177534700    0.2883845269450181 C
   0.5076870137009165    0.5199747069266747    0.3155084160698909 C
   0.0063318216950714    0.5198013669468260    0.3126494476325227 C
   0.5013111448776271    0.3550997709341533    0.3097400998021048 C
  -0.0080656057465636    0.3530423877891654    0.3137693728679559 N
   0.2519955923956120    0.4371505010602310    0.3546508469273839 Ta
