Title
1.0
   9.8694509999999998    0.0000000000000000    0.0000000000000000
   0.0000000000000000    8.5490480000000009    0.0000000000000000
   0.0000000000000000    0.0000000000000000   20.0000000000000000
C N Rh
26 4 1
direct
   0.0555625375568549    0.0907146710487476    0.0904555123634338 C
   0.9311920415820689    0.1726050363620560    0.0916974280368762 C
   0.0574471689164562    0.9243013648983636    0.0905661024741943 C
   0.9341344025163196    0.3402349287625467    0.0909816987790304 C
   0.0572207259140994    0.5900979782806728    0.0879487519192534 C
   0.9346309180783211    0.6751346956479320    0.0908705858031194 C
   0.0576829479515504    0.4234920237045277    0.0879958712022415 C
   0.9326185047363349    0.8410925379541988    0.0918202913971022 C
   0.3054033581959109    0.0887899617686404    0.0955957779567010 C
   0.1804684045925583    0.1712655247580435    0.0914189624052381 C
   0.1804835251348405    0.3390247254378029    0.0905248954038743 C
   0.3014678943538078    0.5910365904571810    0.0959238420282684 C
   0.1799995926139794    0.6741130680594137    0.0902435510918535 C
   0.3025389381481116    0.4207790044452879    0.0963576478487954 C
   0.1808505068055062    0.8415882664784408    0.0914331390180469 C
   0.5554920499805471    0.0889273855766584    0.1032351468705250 C
   0.4281288257810303    0.1747245048899589    0.1017358732433936 C
   0.5543640511682929    0.9182678786893063    0.1028500792660500 C
   0.4264504270477147    0.8344818241776026    0.1008545116835377 C
   0.8054011386662313    0.0898483389425131    0.0960049464747205 C
   0.6817177496611336    0.1751933491958961    0.1018562584340519 C
   0.8064831061269969    0.9216520566318750    0.0959461065713866 C
   0.6883030055089040    0.3432259609591460    0.1055516228293186 C
   0.8136241462282996    0.5931056200547914    0.0975371779916870 C
   0.8132616236506450    0.4237002949795750    0.0974261250203160 C
   0.6837474113396160    0.8326394588107764    0.1016457118837881 C
   0.4217748773334888    0.3376684453834610    0.1047594549166191 N
   0.6929520169733203    0.6711809458581894    0.1052526839854217 N
   0.4183351106361529    0.6768275805125781    0.1034570922182400 N
   0.3051557372288507    0.9232357456490737    0.0950478359436573 N
   0.5562422555720661    0.5019252316247551    0.1139703149392944 Rh
