Title
1.0
   4.9440799999999996    0.0000000000000000    0.0000000000000000
   0.0000000000000000    8.5647549999999999    0.0000000000000000
   0.0000000000000000    0.0000000000000000   20.0000000000000000
C N Ir
13 2 1
direct
  -0.0013031336017797    0.2888364157498084    0.0933332391652146 C
   0.2500000000000000    0.0443218199446116    0.0868545156403949 C
   0.0024403789015602    0.7972036355868599    0.0977341444581170 C
   0.0000663733968006    0.9613833296207741    0.0859067976853524 C
   0.7500000000000000    0.2072851932573799    0.0827783078007331 C
   0.5013031336017799    0.2888364157498084    0.0933332391652146 C
   0.7500000000000000    0.0420904368653636    0.0805890027768942 C
   0.7500000000000000    0.7093551431741844    0.1026730003885694 C
   0.4975596210984398    0.7972036355868599    0.0977341444581170 C
   0.7500000000000000    0.5389623195697044    0.1074342116625906 C
   0.4999336266031995    0.9613833296207741    0.0859067976853524 C
   0.5139513146584193    0.4449666116656219    0.1141395797422214 C
  -0.0139513146584190    0.4449666116656219    0.1141395797422214 C
   0.2500000000000000    0.7274380053288780    0.1092180163113571 N
   0.2500000000000000    0.2062719485066838    0.0907054121307479 N
   0.2500000000000000    0.5394951481070644    0.1700320111869118 Ir
