Title
1.0
   4.9440799999999996    0.0000000000000000    0.0000000000000000
   0.0000000000000000   17.1295089999999988    0.0000000000000000
   0.0000000000000000    0.0000000000000000   20.0000000000000000
C N Pd
28 3 1
direct
   0.0029447720163171    0.1043003272679334    0.2912116089197208 C
   0.2532837921837493    0.1463767534555224    0.2914150880241588 C
   0.2557808016382206    0.2300271451811329    0.2922647960365614 C
   0.0162350062805405    0.3543997044172929    0.2958150906846000 C
   0.0050330370432810    0.2716585125031113    0.2931094487270380 C
  -0.0138283356892631    0.6032086969489244    0.3072689260485232 C
   0.2428523950338109    0.7276662666925908    0.3002968376815772 C
  -0.0034827571069207    0.8536454068105597    0.2937533306067476 C
   0.2468425840927813    0.8956208442694145    0.2931049401881287 C
   0.2492731594905671    0.9790420325110911    0.2917689002126482 C
  -0.0057025934175993    0.7702216412580448    0.2965958845040631 C
   0.5022485084656346    0.1043293957143864    0.2913036437648645 C
   0.7534963227590543    0.1462096860166609    0.2914443129298466 C
   0.7561420014992056    0.2290093337704541    0.2923824664045689 C
   0.5000259801489632    0.0209355713780384    0.2914396903776145 C
   0.5015425730202219    0.3538238892843074    0.2961420393131697 C
   0.7510676022096258    0.4810674044338714    0.3102248555606497 C
   0.5084515581137322    0.2712875577115872    0.2933885181108943 C
   0.4934302703448473    0.6034194838151579    0.3123385538085503 C
   0.7430976274422375    0.7290945995071753    0.2984652831302485 C
   0.4957301912823379    0.8536205493564558    0.2942176095555161 C
   0.7469395586246838    0.8954931689422466    0.2928406374858525 C
   0.7493090679303731    0.9789520738958294    0.2916529844821180 C
   0.4932616343641463    0.7703007365934970    0.2975475021629592 C
   0.7405943964460336    0.6461343935162561    0.3040743789494322 C
   0.2406941273126036    0.6445865094431540    0.3076165705466805 C
   0.0001581373358548    0.0209324013572523    0.2913389104500922 C
   0.5145402458010556    0.5226093910035244    0.3265600556769847 C
   0.9845189192230974    0.5233939704305810    0.3076635090865468 N
   0.2606538694596268    0.3918348993073482    0.2970998781912706 N
   0.7591139912683695    0.3981946728429490    0.2987657231819901 N
   0.2525745553828164    0.4771539803636407    0.3894530251963378 Pd
