Title
1.0
   8.5490480000000009    0.0000000000000000    0.0000000000000000
   0.0000000000000000    8.5490480000000009    0.0000000000000000
   0.0000000000000000    0.0000000000000000   20.0000000000000000
C N Nb
21 3 1
direct
   0.9087895185548162    0.2063815598074294    0.0946206837820686 C
   0.9107149810592230    0.7996060601948313    0.0939465531739567 C
   0.1983520607076875    0.0834271390376661    0.0936604087112230 C
   0.0769112701088531    0.2025687826296675    0.0950101309536664 C
   0.1566918837799358    0.6498492854197085    0.0955855492684538 C
   0.0769537481866905    0.5002110587387928    0.0966053006111344 C
   0.1583249348296848    0.3535852319997568    0.0978239171473178 C
   0.0784845140872463    0.7990172798480717    0.0937811011013599 C
   0.3475192820827654    0.1632612704695822    0.0950456253923750 C
   0.4935991562073536    0.9194576674309788    0.0964064439681837 C
   0.3449871714976614    0.8387569346935415    0.0953402856382898 C
   0.7872008532669489    0.0860007983567627    0.0946750282167308 C
   0.6378429527796592    0.1682445136601735    0.0970960824671480 C
   0.7887030229480566    0.9184511857927384    0.0949512995800358 C
   0.8307063297884724    0.6478227982209278    0.0956650204370862 C
   0.8275864824178765    0.3566473464018320    0.0968036036186114 C
   0.6390318044282836    0.8361883296465870    0.0978310065340463 C
   0.3285906360738682    0.3294730779343711    0.1001040670617877 C
   0.3236650104483872    0.6743740739299234    0.0971659928347409 C
   0.6591783733198271    0.3367072292465227    0.1013315710278189 C
   0.6641901160829987    0.6657436776241284    0.1008137968228735 C
   0.4944935710077909    0.0852275435156900    0.0958617266106002 N
   0.9102972557157814    0.5012796580003475    0.0960477405942777 N
   0.1965359905486125    0.9165303685163507    0.0934808638131968 N
   0.4860610800715044    0.5059771288836249    0.1340512006329966 Nb
