Title
1.0
   8.5490480000000009    0.0000000000000000    0.0000000000000000
   0.0000000000000000    8.5490480000000009    0.0000000000000000
   0.0000000000000000    0.0000000000000000   20.0000000000000000
C N Y
22 2 1
direct
   0.9098880716301990    0.2039190579448191    0.1001930320794128 C
   0.9036893578797474    0.5018086997759953    0.0970267054006939 C
   0.9099095549405362    0.7996786281615017    0.1002090583307638 C
   0.1960060176121535    0.0826676075863689    0.1007444420930902 C
   0.0737059379741671    0.2060184513238716    0.0998857592215390 C
   0.1960301670610087    0.9209089026283802    0.1007912036624375 C
   0.1537170435296063    0.6496440895915981    0.0959302924820041 C
   0.0729309574631624    0.5018053428462463    0.0959492489150658 C
   0.1536871190575038    0.3539374692823111    0.0958798165419175 C
   0.0737383850848830    0.7975584037624527    0.0999314711668295 C
   0.4952768271259967    0.0864795300749956    0.0972033731249376 C
   0.3467394917773599    0.1660058441541794    0.0969971053068601 C
   0.4953077660758352    0.9170925396527911    0.0972299398068333 C
   0.3467752166547123    0.8375594610307353    0.0970724699685476 C
   0.7900457349554717    0.0846167282192849    0.1001313052092444 C
   0.6436286624671765    0.1651782330812569    0.0975088389940334 C
   0.7900545182855229    0.9189709811241453    0.1001313487091824 C
   0.8263121610282350    0.6510854629101891    0.0975149732542472 C
   0.8262918927926467    0.3525129857075845    0.0975004664387828 C
   0.6436446887149800    0.8383992536844901    0.0975163845698737 C
   0.3207001673773598    0.3288813393153869    0.0910219620819675 C
   0.3207399784205689    0.6746798900245836    0.0911203817478619 C
   0.6677038216736308    0.3271921771947642    0.0949441913710445 N
   0.6677277924236817    0.6763757929090425    0.0949588418262635 N
   0.5011606679938466    0.5018131280130399    0.0463123876965437 Y
