Title
1.0
   8.5490480000000009    0.0000000000000000    0.0000000000000000
   0.0000000000000000    8.5490480000000009    0.0000000000000000
   0.0000000000000000    0.0000000000000000   20.0000000000000000
C N Tc
19 5 1
direct
   0.9088382833578309    0.2052325510200379    0.0974161651934073 C
   0.9115853094795959    0.8013846743022462    0.0974900269097480 C
   0.1972970989516862    0.0832157808872158    0.0977871468415722 C
   0.0766900838287207    0.2008836067462414    0.0976671569926869 C
   0.1544941284741004    0.6497779686575700    0.0978395718304810 C
   0.0728204367364178    0.5002596191297043    0.0978514740931672 C
   0.1540909672663309    0.3533207505730205    0.0978207795604084 C
   0.0793047761837215    0.7995745057558393    0.0977087733165732 C
   0.3469704885856688    0.1653644014257417    0.0979188431391954 C
   0.4944018020525191    0.9188975336155596    0.0978018894645648 C
   0.3455907390664881    0.8377293339905333    0.0978957310833198 C
   0.7888703818737963    0.0860224927278689    0.0973285737832815 C
   0.6422501951398969    0.1660323931213399    0.0976280195546281 C
   0.7911616270665287    0.9189749884729805    0.0973947797133804 C
   0.8286144575194604    0.6527052975908858    0.0977059414140568 C
   0.8265897685355349    0.3519038707497737    0.0976349124745339 C
   0.6436092695525901    0.8388756589952227    0.0976229604492226 C
   0.3233214656606278    0.3311257159792997    0.0979679340696315 C
   0.3217077595389136    0.6730422313584304    0.0979571945254806 C
   0.4953361009523978    0.0870731128430804    0.0978543025083690 N
   0.9031315081145939    0.5020082244524831    0.0978090756057194 N
   0.6651537581584541    0.3273180185235163    0.0977714213931361 N
   0.6693102796745641    0.6760571466945149    0.0978270604453650 N
   0.1964520407576907    0.9165072483047825    0.0978430064998910 N
   0.4878192734718637    0.5015028740821303    0.0981622591381528 Tc
