Title
1.0
   8.5490480000000009    0.0000000000000000    0.0000000000000000
   0.0000000000000000    8.5490480000000009    0.0000000000000000
   0.0000000000000000    0.0000000000000000   20.0000000000000000
C Ti
24 1
direct
   0.9112692861744814    0.2060494977063680    0.0978970478339672 C
   0.9090912558228056    0.5017876015655024    0.0968212451675206 C
   0.9113267073208535    0.7975294857980865    0.0979757429775211 C
   0.1973096264845158    0.0834833825407033    0.0981875173078357 C
   0.0747295423039722    0.2059956888582840    0.0980295899493005 C
   0.1973399003596333    0.9200342452865898    0.0982757880894642 C
   0.1580298661041225    0.6477170452922284    0.0968119554794793 C
   0.0769642613290681    0.5017581273405179    0.0969579323983083 C
   0.1579881269960908    0.3557981504801671    0.0966851880707303 C
   0.0747847770247733    0.7975152329236198    0.0981543328108174 C
   0.4930026570029631    0.0857302147095757    0.0971036478772491 C
   0.3470769793431626    0.1667891809921089    0.0968410079815068 C
   0.4930348321318946    0.9178630934722553    0.0971279079996038 C
   0.3471173247089102    0.8367753000295908    0.0969652261164810 C
   0.7887340935834219    0.0835360499877087    0.0979411024461596 C
   0.6389201233037795    0.1668221534644797    0.0966291683730481 C
   0.7887970079404063    0.9200731930412471    0.0979715075905374 C
   0.8280449101049961    0.6477434923742645    0.0965116766971769 C
   0.8279901588896411    0.3558566108677920    0.0964839060706536 C
   0.6389811777329019    0.8367980817553526    0.0966297131448104 C
   0.3244654894560026    0.3332176208404871    0.0941489015813486 C
   0.3245044977780326    0.6703361096441729    0.0943200191625826 C
   0.6615114560807889    0.3332719666272867    0.0939245959535073 C
   0.6615968813479332    0.6703625252130914    0.0939018456226338 C
   0.4928010606748421    0.5019459491885335    0.0614084332977342 Ti
