Title
1.0
   9.8694509999999998    0.0000000000000000    0.0000000000000000
   0.0000000000000000    8.5490480000000009    0.0000000000000000
   0.0000000000000000    0.0000000000000000   20.0000000000000000
C N Cr
29 2 1
direct
   0.0565199407501018    0.0911954226379089    0.0861752081246277 C
   0.9313349082868246    0.1732964701738098    0.0877569013354816 C
   0.0557832923798072    0.9240694812108707    0.0861558561622086 C
   0.9308118370186611    0.3395358569056961    0.0904795902128465 C
   0.0564858327030103    0.5893253941858709    0.0877942880211692 C
   0.9322189889702578    0.6726436011382873    0.0905790102213139 C
   0.0570044520161061    0.4228911814162669    0.0890945567687972 C
   0.9313606933563165    0.8394611466508253    0.0890414146297757 C
   0.3056637226039512    0.0904745544021369    0.0882833379356512 C
   0.1815872420961052    0.1748160567596666    0.0873426166611026 C
   0.3043238788442435    0.9247012282603836    0.0893694198489515 C
   0.1834075081034897    0.3417195280981954    0.0895439749116078 C
   0.3052754436814066    0.5941553753175977    0.0951366082005888 C
   0.1800170926278530    0.6740264357031094    0.0884543397920723 C
   0.3101745161773292    0.4256099245306336    0.0940795473090344 C
   0.1797920259228221    0.8409808616229827    0.0874169821349245 C
   0.5557610804652179    0.0856194671577906    0.0941941238277085 C
   0.4313865808549254    0.1707000453083263    0.0917839529964425 C
   0.5549033090477005    0.9200236469013084    0.0988719347753511 C
   0.4345952511573497    0.3360450081266615    0.0962152565312813 C
   0.4267981784186533    0.8401964267601136    0.0974182154734516 C
   0.8070447859956665    0.0887298811019327    0.0894177944050260 C
   0.6815528584067122    0.1687959027422477    0.0928460169811282 C
   0.8067494377917211    0.9228111921704750    0.0916458668695559 C
   0.6805551726814759    0.3340469739714496    0.0978167080321366 C
   0.8085023298226935    0.5895616034833037    0.1007798078780091 C
   0.6922295979365890    0.6786243903011991    0.1152468831036242 C
   0.8053022495300663    0.4215579636381807    0.0971635960224699 C
   0.6831656846842942    0.8397494784667674    0.1018977186136449 C
   0.4210169505894711    0.6810401072300947    0.1046563454447028 N
   0.5579253197669458    0.4086427438946370    0.1047201502770388 N
   0.5503888373122362    0.5851986497312816    0.1642969764983094 Cr
