Title
1.0
   4.9440799999999996    0.0000000000000000    0.0000000000000000
   0.0000000000000000    8.5647549999999999    0.0000000000000000
   0.0000000000000000    0.0000000000000000   20.0000000000000000
C N Fe
10 4 1
direct
  -0.0023701212446128    0.2958127799884335    0.1004809726380996 C
   0.2485437239912875    0.0378543454741872    0.1004701976071026 C
  -0.0022918572475069    0.9557427868481315    0.1004794135411630 C
   0.7475294162174301    0.2084295392910874    0.1004233779038128 C
   0.4977519607921344    0.2945473657214567    0.1004919904790978 C
   0.7494047024299478    0.0402487029797853    0.1003507619481805 C
   0.7546034580648058    0.7143475387077280    0.1005273980813322 C
   0.7528569645703850    0.5380563252262891    0.1006932998625475 C
   0.5011350603976449    0.9541979218351900    0.1004627091500417 C
   0.5047468448795300    0.4606340094255171    0.1005056614978023 C
  -0.0034985731353813    0.4571198642595221    0.1005781475014970 N
  -0.0085772355940148    0.7918103711503147    0.1006285018192893 N
   0.5114434990957727    0.7895368132375993    0.1005557855057036 N
   0.2474409113105530    0.2101690628674982    0.1004618394385694 N
   0.2512812454720245    0.6231735729872614    0.1008699430257641 Fe
