Title
1.0
   9.8694509999999998    0.0000000000000000    0.0000000000000000
   0.0000000000000000    8.5490480000000009    0.0000000000000000
   0.0000000000000000    0.0000000000000000   20.0000000000000000
C N Rh
28 2 1
direct
   0.0558360699222684    0.0891948331435773    0.0822543827831397 C
   0.9310459253033198    0.1716089448249681    0.0832146784222548 C
   0.0558429492184735    0.9231443284349324    0.0822625756091631 C
   0.9345098023022913    0.3381746715540904    0.0814858534863687 C
   0.0580590916710579    0.5892346371163517    0.0793076163482285 C
   0.9345146234894409    0.6741630999238588    0.0814870841918067 C
   0.0580495966847875    0.4231305530708632    0.0793008778199083 C
   0.9310448272676513    0.8407302978281626    0.0832146368123739 C
   0.3051955049717119    0.0901689828562289    0.0944138757749773 C
   0.1807316609043979    0.1721406628065253    0.0863906728390099 C
   0.3052013859726229    0.9221285419899727    0.0944303173315936 C
   0.1810813769429973    0.3391772200042965    0.0857795592470398 C
   0.3025261395800390    0.5918845153364666    0.0983990928635658 C
   0.1810846942387056    0.6731739214376332    0.0857917045984627 C
   0.3025268943571078    0.4204234548765821    0.0984012874483856 C
   0.1807416155482163    0.8402021180564622    0.0864148458673520 C
   0.5547614377520291    0.0908169382101367    0.1069641819446747 C
   0.4263960237659206    0.1774844885320022    0.1052899131526710 C
   0.5547654829948727    0.9214661577974391    0.1069702176773756 C
   0.4264066951095787    0.8347985360850116    0.1053192530722322 C
   0.8047480058513574    0.0901984471137594    0.0905765888905338 C
   0.6819021452972259    0.1772079212498147    0.1015950051393509 C
   0.8047493920017191    0.9220990388923967    0.0905806639388375 C
   0.6908935401434179    0.3445169960290262    0.1067539773336082 C
   0.8143029025974937    0.5901664153987833    0.0909871990082129 C
   0.6909016609461925    0.6677939725118729    0.1067579138513302 C
   0.8142992946874514    0.4221570551675516    0.0909916681628502 C
   0.6819088690986866    0.8350999084854915    0.1015996730235363 C
   0.4194289782794671    0.3383634072895372    0.1115438152608028 N
   0.4194225029625925    0.6739211828100875    0.1115583329701007 N
   0.5602559101369141    0.5061037511661288    0.1309275351302941 Rh
