Title
1.0
   4.9440799999999996    0.0000000000000000    0.0000000000000000
   0.0000000000000000   17.1295089999999988    0.0000000000000000
   0.0000000000000000    0.0000000000000000   20.0000000000000000
C V
30 1
direct
  -0.0000483813981890    0.1046758775500825    0.2932004505793598 C
   0.2503226484066100    0.1467674728266424    0.2944559248215405 C
   0.2503156837761637    0.2296226111412135    0.2986427787209774 C
   0.0012484974745177    0.2722826502659187    0.3013286919160396 C
   0.0012206299652716    0.6026466003858634    0.3013598973389653 C
   0.2502984856785429    0.7281546951918263    0.2948172608454404 C
   0.0001503833399258    0.8537106431661130    0.2925132033851738 C
   0.2503431509755716    0.8957819070810632    0.2922651693656225 C
   0.2503840932415677    0.9791539021766332    0.2920454306777824 C
  -0.0000465812131937    0.7702524247488265    0.2936617552318486 C
   0.5007107465930110    0.1046756722576749    0.2931870600907988 C
   0.7503419681942572    0.1466710622046202    0.2942159952415334 C
   0.7503332993692772    0.2303564422508098    0.2980145438920546 C
   0.5005860453223975    0.0212087650739931    0.2921269082036232 C
   0.7502668591787385    0.3946190582698897    0.3096852601857882 C
   0.7502558197707261    0.4802999737205829    0.3096639605901592 C
   0.4994116127015146    0.2722800449897524    0.3012553540909901 C
   0.4994006399172749    0.6026384676183548    0.3012998227783141 C
   0.7502947578533584    0.7282601908221916    0.2946032912096495 C
   0.5005291308695240    0.8537101864862057    0.2925000739362084 C
   0.7503555662789941    0.8956520531929821    0.2922135900852694 C
   0.7504039581293463    0.9792652721635074    0.2919798536104320 C
   0.5006548372909442    0.7702459853471925    0.2936457608211735 C
   0.7503275969389742    0.6445739074204841    0.2981768116428894 C
   0.2503252864716575    0.6453049594171354    0.2988094904326612 C
   0.0001495512586932    0.0212173091589339    0.2921303914969160 C
   0.5005956573409945    0.5201554723916723    0.3082681337831312 C
  -0.0000434912123580    0.5201671093696294    0.3084050981998501 C
   0.5005429515484321    0.3547693430598409    0.3082896462621148 C
   0.0000433609676892    0.3547578619114076    0.3084258226829689 C
   0.2503322349697686    0.4374640783389511    0.3438725678806760 V
