Title
1.0
   4.9440799999999996    0.0000000000000000    0.0000000000000000
   0.0000000000000000    8.5647549999999999    0.0000000000000000
   0.0000000000000000    0.0000000000000000   20.0000000000000000
C N Rh
11 3 1
direct
   0.0043050967460140    0.2918077914307238    0.0910581182661789 C
   0.2496843977937790    0.0420288789960360    0.1001122567696333 C
  -0.0051022841006527    0.9574757901228160    0.0970600655528580 C
   0.7530127111563458    0.2076234243162963    0.0944688785684745 C
   0.5081286363921136    0.2959099705205607    0.1026373263231733 C
   0.7455505527889065    0.0410474181337817    0.0968248170815714 C
   0.7483496452035062    0.7134294800410304    0.1006911557346892 C
   0.7569046458052512    0.5348655618868414    0.0985764375120440 C
   0.4971998016180716    0.9573113938274905    0.1031542066398017 C
   0.5040897251197518    0.7899031910236665    0.1120036636484134 C
  -0.0033170235676590    0.4545167371869894    0.0851845611333781 C
   0.5177351635555538    0.4546344911945075    0.1138513980793454 N
  -0.0149047549031469    0.7953315357955824    0.0968541674098575 N
   0.2550294982846911    0.2099909081709785    0.0989502004318377 N
   0.2333341881074739    0.6258044273527017    0.1165527468487473 Rh
