Title
1.0
   9.8694509999999998    0.0000000000000000    0.0000000000000000
   0.0000000000000000    8.5490480000000009    0.0000000000000000
   0.0000000000000000    0.0000000000000000   20.0000000000000000
C N Sc
27 4 1
direct
   0.0563833436979688    0.0921135538123257    0.0870722033808286 C
   0.9310547392513380    0.1748437786118445    0.0891872775717406 C
   0.0563270099364183    0.9243950676792467    0.0868862379291587 C
   0.9299416413528291    0.3417723683528914    0.0929836400018941 C
   0.0562402779504995    0.5899078087172377    0.0906123707073636 C
   0.9317840280474859    0.6734056386485811    0.0924405572301167 C
   0.0564132194935366    0.4231573821637892    0.0921164245952916 C
   0.9318821453390924    0.8403306032021275    0.0897201749658592 C
   0.3053940111735864    0.0898809970654264    0.0873191741724556 C
   0.1817496753203045    0.1749481676809709    0.0884100141067055 C
   0.3061686627751969    0.9244382799276111    0.0871079562724585 C
   0.1829220710695111    0.3416925256273646    0.0920879407696379 C
   0.3063244125046718    0.5940819139548037    0.0967580464711557 C
   0.1805457332776718    0.6735560452160746    0.0901082537502597 C
   0.3107637752170686    0.4248744602497598    0.0966362694224655 C
   0.1810113110638672    0.8403787084058958    0.0875336358686069 C
   0.5566026310845965    0.0841492259492756    0.0936102631733895 C
   0.4317477993515891    0.1677938652997244    0.0918656041902082 C
   0.4337779025834009    0.3331429915876407    0.0980261468714969 C
   0.4285003923854194    0.8395073062108178    0.0938388995820951 C
   0.8075113811121108    0.0895419337907327    0.0887468934595442 C
   0.6812252442084595    0.1678683461906452    0.0927725360288375 C
   0.8066489274825447    0.9240455600448250    0.0897179200169689 C
   0.6795746443239660    0.3332576369966836    0.0990699781793969 C
   0.8065433902918452    0.5939669626412374    0.1007290992690133 C
   0.8023154364401646    0.4248407006133587    0.0987317506323436 C
   0.6844676275489353    0.8390131559554639    0.0971637529357634 C
   0.4234624784339215    0.6828141285920066    0.1049126911158591 N
   0.5564883593692516    0.4051866177928470    0.1090664587496338 N
   0.6898674694467786    0.6830177867999311    0.1114194402988083 N
   0.5566652680075852    0.9170535296512725    0.0951921413616077 N
   0.5493339904583909    0.5812689525675896    0.1738312469190513 Sc
