Title
1.0
   4.9440799999999996    0.0000000000000000    0.0000000000000000
   0.0000000000000000   17.1295089999999988    0.0000000000000000
   0.0000000000000000    0.0000000000000000   20.0000000000000000
C N Tc
26 4 1
direct
  -0.0001358258435019    0.1058177489730365    0.2971620516881789 C
   0.2481159071221210    0.1488486732267291    0.2975811290019358 C
   0.2466508938340560    0.2337181361374499    0.3000199692443977 C
  -0.0059462766003356    0.2747990378222616    0.3051855997776501 C
  -0.0020497866894191    0.5999508145619563    0.3042504656632439 C
   0.2500872334824042    0.7262032182202753    0.2976436232991156 C
   0.0007627410574534    0.8533400994698768    0.2962084870846206 C
   0.2503727244301651    0.8954768403751391    0.2957992089599914 C
   0.2498760224705626    0.9795597845451425    0.2957440047347890 C
   0.0014750611416076    0.7692160587638905    0.2971293712844882 C
   0.4982430055077239    0.1061999608786477    0.2957756891866145 C
   0.7496822874624007    0.1474360314675751    0.2964279462268738 C
   0.7497320734294167    0.2312450058988645    0.2977888108770655 C
   0.4991310982031208    0.0219498331138890    0.2953866939212666 C
   0.7438930269118055    0.3938284291957436    0.3028745600739565 C
   0.7479965306875446    0.4809478288097961    0.3021161350335029 C
   0.5012612933054988    0.2732147663108465    0.2955246293602170 C
   0.5044618004228656    0.6019286063247605    0.2964054964293274 C
   0.7516750563609235    0.7274843506147580    0.2965818158477364 C
   0.4999190040743421    0.8530962953432562    0.2955553290246041 C
   0.7500279939946437    0.8953849974772977    0.2955665476768007 C
   0.7495874515667079    0.9796532887985664    0.2955105864742172 C
   0.4999635350257818    0.7688252676880172    0.2960218616286537 C
   0.7528171892845176    0.6437050882220384    0.2977880120633770 C
   0.2497532501703470    0.6414466112237833    0.2999655506237540 C
   0.0000164202295792    0.0216740740315469    0.2961817386861909 C
   0.5153425127017456    0.5219334116493062    0.2931130497978379 N
   0.9861794765495585    0.5189068558282887    0.3155454251424334 N
   0.5122951672609810    0.3532624260848473    0.2883964755514495 N
  -0.0205368046883985    0.3552900513504585    0.3199644650177957 N
   0.2793569371337813    0.4369984075919516    0.3258452706178653 Tc
