Title
1.0
   4.9440799999999996    0.0000000000000000    0.0000000000000000
   0.0000000000000000    8.5647549999999999    0.0000000000000000
   0.0000000000000000    0.0000000000000000   20.0000000000000000
C Pt
14 1
direct
   0.2500000000000000    0.2073414535081027    0.0992090703439457 C
  -0.0003371286486937    0.2913121759158176    0.0990712749591632 C
   0.2500000000000000    0.0422064374002864    0.0992432361743588 C
  -0.0003362513280118    0.9582480953602909    0.0991141837779633 C
   0.7500000000000000    0.2079422285291762    0.0978868273472973 C
   0.5003371286486935    0.2913121759158176    0.0990712749591632 C
   0.7500000000000000    0.0415604039611072    0.0979261683733440 C
   0.7500000000000000    0.7114597994108387    0.0941356442596948 C
   0.7500000000000000    0.5381406183850613    0.0941146391052463 C
   0.5003362513280116    0.9582480953602909    0.0991141837779633 C
   0.5107296471260575    0.4555126704500970    0.1011213552189132 C
  -0.0107296471260576    0.4555126704500970    0.1011213552189132 C
  -0.0107563456125482    0.7940841172089564    0.1011770091479048 C
   0.5107563456125481    0.7940841172089564    0.1011770091479048 C
   0.2500000000000000    0.6247159409351055    0.1244967681882273 Pt
