Title
1.0
   8.5490480000000009    0.0000000000000000    0.0000000000000000
   0.0000000000000000    8.5490480000000009    0.0000000000000000
   0.0000000000000000    0.0000000000000000   20.0000000000000000
C N Nb
20 4 1
direct
   0.9095723270698602    0.2048668338805743    0.0954401499788144 C
   0.9059403763302597    0.5038430262182377    0.0962782710121986 C
   0.9094957152729340    0.8014284830673064    0.0958062934269994 C
   0.1988560924666716    0.0846956051033031    0.0965388946338452 C
   0.0757400700095853    0.2035903608520173    0.0948269262777952 C
   0.1562556958898133    0.6528613013085495    0.0972137467456650 C
   0.0746897114933506    0.5033862968542011    0.0958937751068284 C
   0.1528037917589512    0.3545149826394653    0.0948982177812907 C
   0.0779877513785301    0.7992667813718897    0.0961076063919917 C
   0.4935988122867432    0.0852822270265591    0.0984575620869539 C
   0.3461064683270919    0.1647965454692792    0.0983949160472270 C
   0.4921558824664867    0.9164531693844745    0.0980576892661050 C
   0.3430108063059997    0.8367698132701404    0.0985589778034021 C
   0.7886387724522477    0.0853896272058194    0.0965139413568836 C
   0.6424310165487549    0.1630603423303423    0.0984376998297696 C
   0.7888248532064913    0.9192527305901800    0.0960783507571659 C
   0.8280824542216950    0.6533434198945437    0.0966730163569811 C
   0.8312719318717007    0.3524609351828329    0.0965102368697557 C
   0.6413530660594743    0.8382531451849474    0.0971393901770297 C
   0.3185774277452309    0.3346731707177800    0.0982003738264264 C
   0.3190959704149733    0.6777334595509675    0.1002062925954497 N
   0.6690750815367857    0.3272453546618579    0.0999767886137076 N
   0.6652078066794120    0.6781167330111183    0.0980980535390236 N
   0.1981193293930210    0.9174328095863189    0.0968313390359619 N
   0.4985207888139286    0.4860728456373143    0.1125664904827013 Nb
