Title
1.0
   8.5490480000000009    0.0000000000000000    0.0000000000000000
   0.0000000000000000    8.5490480000000009    0.0000000000000000
   0.0000000000000000    0.0000000000000000   20.0000000000000000
C N Hf
19 5 1
direct
   0.9080530381633710    0.2048015284274766    0.0956029633185105 C
   0.9089738836726515    0.5025378022272684    0.0971499780379590 C
   0.9101108538784939    0.8018038578489374    0.0957885724340002 C
   0.1963251532837051    0.0833491211045082    0.0958592929984233 C
   0.0755647033779585    0.2020207590464496    0.0957112678628236 C
   0.1566192625391322    0.6526049480408603    0.0968770185883270 C
   0.0786201556668624    0.5011892376229963    0.0970230608084852 C
   0.1560866897677981    0.3498249311889742    0.0971392651145262 C
   0.0779264927518452    0.7989619631994201    0.0956344081630490 C
   0.4930250287504088    0.0870039258132789    0.0971727026248633 C
   0.3426471190533680    0.1630584268418618    0.0973639797888914 C
   0.4924065162761886    0.9176425854291977    0.0969951231151330 C
   0.3427194421644950    0.8387663839039790    0.0969913664155262 C
   0.7880443886326111    0.0863152307005690    0.0956664300468109 C
   0.6415444306228891    0.1661003557602568    0.0971794477695158 C
   0.7885472963851567    0.9193853619543761    0.0957242953313517 C
   0.8313964659553368    0.6529125890724171    0.0972950431454968 C
   0.8299457775926752    0.3525588813497318    0.0970827800913026 C
   0.6421745665891759    0.8380371872225444    0.0971279299180517 C
   0.3179107563562997    0.3247316463128983    0.0989786492900342 N
   0.3184774407038021    0.6803061387702958    0.0984071854575579 N
   0.6674351187405111    0.3286261841793917    0.0989591265427051 N
   0.6686888030836025    0.6761593876754526    0.0990442968511338 N
   0.1974553043052818    0.9168077259734254    0.0955885869340556 N
   0.4947133116863736    0.4992838403334308    0.1173422293514461 Hf
