Title
1.0
   4.9440799999999996    0.0000000000000000    0.0000000000000000
   0.0000000000000000    8.5647549999999999    0.0000000000000000
   0.0000000000000000    0.0000000000000000   20.0000000000000000
C N Fe
12 2 1
direct
   0.2500000000000000    0.2061784983944734    0.1004970681302959 C
   0.0001400081692095    0.2924124948749964    0.1005394227137275 C
   0.2500000000000000    0.0369072938722272    0.1004371834356444 C
  -0.0030583025603041    0.9548327082406480    0.1004277822830568 C
   0.7500000000000000    0.2087438584093075    0.1004789976695753 C
   0.4998599918307907    0.2924124948749964    0.1005394227137275 C
   0.7500000000000000    0.0403172313884520    0.1003931447572621 C
   0.7500000000000000    0.7178061752447384    0.1005882500194101 C
   0.7500000000000000    0.5415661025611238    0.1006416007393789 C
   0.5030583025603039    0.9548327082406480    0.1004277822830568 C
   0.5026272715925779    0.4597814565652050    0.1006130682939601 C
  -0.0026272715925778    0.4597814565652050    0.1006130682939601 C
  -0.0124640101045283    0.7927049605419093    0.1005446280501164 N
   0.5124640101045282    0.7927049605419093    0.1005446280501164 N
   0.2500000000000000    0.6206985996841627    0.1006939525667152 Fe
