Title
1.0
   4.9440799999999996    0.0000000000000000    0.0000000000000000
   0.0000000000000000    8.5647549999999999    0.0000000000000000
   0.0000000000000000    0.0000000000000000   20.0000000000000000
C N Cu
12 2 1
direct
   0.2500000000000000    0.2056020303497077    0.1003716402495534 C
   0.0022360217833750    0.2936043079708109    0.1003930785481813 C
   0.2500000000000000    0.0364967408449607    0.1004195252209178 C
  -0.0022117409983652    0.9534345835512932    0.1004605851158354 C
   0.7500000000000000    0.2090656822496442    0.1002944589579396 C
   0.4977639782166249    0.2936043079708109    0.1003930785481813 C
   0.7500000000000000    0.0405354058734629    0.1003003571660390 C
   0.7500000000000000    0.7167100957649760    0.1007498058629298 C
   0.7500000000000000    0.5437684951341085    0.1007156399982927 C
   0.5022117409983653    0.9534345835512932    0.1004605851158354 C
   0.5035245344082360    0.4598101069036425    0.1006162626446823 C
  -0.0035245344082362    0.4598101069036425    0.1006162626446823 C
  -0.0118846397547482    0.7917280126175800    0.1007251019951293 N
   0.5118846397547484    0.7917280126175800    0.1007251019951293 N
   0.2500000000000000    0.6223485276964900    0.1007385159366745 Cu
