Title
1.0
   4.9440799999999996    0.0000000000000000    0.0000000000000000
   0.0000000000000000    8.5647549999999999    0.0000000000000000
   0.0000000000000000    0.0000000000000000   20.0000000000000000
C N Au
12 3 1
direct
   0.2500000000000000    0.2113110009846593    0.0900412675554153 C
  -0.0053054916935987    0.2933079088207344    0.0911195041271584 C
   0.2500000000000000    0.0439222852677022    0.0906152253451591 C
   0.0035909064632241    0.7918668307057458    0.1004182971828823 C
   0.0001353621547769    0.9582633910775463    0.0914378622227165 C
   0.7500000000000000    0.2058456709256624    0.0877395429330637 C
   0.5053054916935985    0.2933079088207344    0.0911195041271584 C
   0.7500000000000000    0.0396297881254216    0.0878533142457171 C
   0.7500000000000000    0.7029549522710928    0.1003869064410342 C
   0.4964090935367760    0.7918668307057458    0.1004182971828823 C
   0.7500000000000000    0.5282964367713671    0.0983833886422463 C
   0.4998646378452229    0.9582633910775463    0.0914378622227165 C
   0.5111961014589137    0.4511377711591121    0.0971542752207105 N
  -0.0111961014589137    0.4511377711591121    0.0971542752207105 N
   0.2500000000000000    0.7205629466262585    0.1106333264795652 N
   0.2500000000000000    0.5583251155015602    0.1965991508508710 Au
