Title
1.0
   9.8694509999999998    0.0000000000000000    0.0000000000000000
   0.0000000000000000    8.5490480000000009    0.0000000000000000
   0.0000000000000000    0.0000000000000000   20.0000000000000000
C N Ti
29 2 1
direct
   0.0566757108972704    0.0911890205121636    0.0836824463731941 C
   0.9314475824616534    0.1732610615418906    0.0856640995961585 C
   0.0558298451110181    0.9239448210810765    0.0832503276617785 C
   0.9310234117923228    0.3393861641688151    0.0889358869719187 C
   0.0566646437441340    0.5892069158683214    0.0856596119764079 C
   0.9321838421646486    0.6723238307417079    0.0877321145838701 C
   0.0571590036157349    0.4228867526864208    0.0875409102103248 C
   0.9312398956332750    0.8393495822983102    0.0857955016520675 C
   0.3058532705730722    0.0907736265633235    0.0871771606402087 C
   0.1817873001156959    0.1749253403428571    0.0858333245077550 C
   0.3044265240005700    0.9248976539993627    0.0885146583501335 C
   0.1836452732804522    0.3417321556336902    0.0889298971612278 C
   0.3044515207213297    0.5941792724899677    0.0973580116538215 C
   0.1803373230868945    0.6738350285836523    0.0872106126209750 C
   0.3103780780599446    0.4257618820694924    0.0961637129668577 C
   0.1798956901740426    0.8410452823433554    0.0856536341138824 C
   0.5558451087137801    0.0857480575193104    0.0945067390247774 C
   0.4315028731155554    0.1711343252610009    0.0922581196062958 C
   0.5549683239304737    0.9198668903537798    0.0993898933294237 C
   0.4343188864990409    0.3358538759171417    0.0993620251051017 C
   0.4262392996254936    0.8413394363204101    0.0993514789503847 C
   0.8070448877075977    0.0887108883147391    0.0872757142520050 C
   0.6817180603427562    0.1688621816743008    0.0924527614849893 C
   0.8065152153693008    0.9226571087019786    0.0889603502632705 C
   0.6814027048593158    0.3333197042753834    0.0998041316627844 C
   0.8088387436042299    0.5897107451811769    0.0989870119547136 C
   0.6921394671941319    0.6780429211184351    0.1140562063539223 C
   0.8054254009632591    0.4215399422577407    0.0969331419746126 C
   0.6833640600547862    0.8394385535496631    0.1004551501405985 C
   0.4178987304570018    0.6831004640643156    0.1122855035824859 N
   0.5584780572626556    0.4053190832823912    0.1131674488045069 N
   0.5509402648685674    0.5869034312838336    0.1713274124695804 Ti
