Title
1.0
   8.5490480000000009    0.0000000000000000    0.0000000000000000
   0.0000000000000000    8.5490480000000009    0.0000000000000000
   0.0000000000000000    0.0000000000000000   20.0000000000000000
C N Rh
21 3 1
direct
   0.9097836585406536    0.2090702656367908    0.0970892331061491 C
   0.9122319414796611    0.8014259417482191    0.0975034393658184 C
   0.2001677720696961    0.0830213361256497    0.0974897483384167 C
   0.0745227314914778    0.2061237630404940    0.0975381924658714 C
   0.1547062707904038    0.6501205486344498    0.0975398784975062 C
   0.0727882391154732    0.5027113129134091    0.0978403100379698 C
   0.1543811765752922    0.3564260334028873    0.0981258969221985 C
   0.0785615729997194    0.7990303181939121    0.0972609764601820 C
   0.4947053761996351    0.0825450195879439    0.0973574777444148 C
   0.3464350506178135    0.1634144309750039    0.0979088275826901 C
   0.4942849331664266    0.9131193780357757    0.0975428739213453 C
   0.3467758779271707    0.8321609034991614    0.0975876560068921 C
   0.7873312611384643    0.0861568513541103    0.0968373216311189 C
   0.6398925264702949    0.1652621596741301    0.0969783260200935 C
   0.7900401245589543    0.9194245287026079    0.0973965344718819 C
   0.8292272912141035    0.6520563650782681    0.0980889470664096 C
   0.8256515800417841    0.3585809972781474    0.0974066572589324 C
   0.6434481994524724    0.8342117671104731    0.0979572920883757 C
   0.3252480599455096    0.3358150212698226    0.0994950837659755 C
   0.3218716781912421    0.6676797795291330    0.0983928581136006 C
   0.6588580096936641    0.3356202716926958    0.0984075425973282 C
   0.9057577752889977    0.5042261883147625    0.0977670774315894 N
   0.6698820986319449    0.6723193041281529    0.0990059769537683 N
   0.1989911030322033    0.9175136663050437    0.0972336944352769 N
   0.4898676913669327    0.4967538477689694    0.1029531777161771 Rh
