Title
1.0
   9.8694509999999998    0.0000000000000000    0.0000000000000000
   0.0000000000000000    8.5490480000000009    0.0000000000000000
   0.0000000000000000    0.0000000000000000   20.0000000000000000
C N Nb
29 1 1
direct
   0.0556366850542554    0.0893796346809896    0.0898976531942531 C
   0.9310961049217489    0.1720875402193367    0.0898143665450841 C
   0.0570424574959079    0.9236351950814018    0.0898980214570583 C
   0.9324410679357458    0.3390937064389865    0.0922185636726043 C
   0.0563997305086157    0.5904055544231506    0.0935612256345949 C
   0.9326500973951759    0.6736833377250981    0.0925006709300945 C
   0.0565732310623577    0.4228263507147405    0.0934269849741670 C
   0.9315510835806514    0.8399493677421819    0.0900251671933457 C
   0.3063554195975842    0.0885517706405641    0.0923545001120690 C
   0.1811071212859502    0.1712069099769796    0.0919414260367071 C
   0.1804963490517301    0.3382313343169618    0.0942305603953461 C
   0.3034906047371848    0.5902669709955830    0.0979820665677794 C
   0.1809419244124069    0.6747291718492431    0.0941298356698332 C
   0.3038430269767182    0.4218567951290008    0.0981778555703475 C
   0.1819138096478192    0.8410333496699762    0.0917094681022622 C
   0.5558172061812490    0.0891446740255347    0.0934307895824879 C
   0.4308441574294318    0.1743440061465378    0.0956131141782347 C
   0.5546048440956938    0.9230870473666610    0.0936268017184154 C
   0.4291572640059998    0.3409070811427358    0.1017528080237430 C
   0.4281769308763030    0.6719871185466899    0.1013662940666919 C
   0.4299207332261237    0.8369520053569532    0.0956596870112184 C
   0.8052865934426896    0.0893761352544163    0.0885087795102812 C
   0.6801451667020996    0.1750079692505727    0.0907712805410989 C
   0.8054333038488802    0.9224574567159783    0.0886698657173328 C
   0.6822232853735174    0.3411560323064042    0.0940270923096327 C
   0.8082969541438884    0.5904819902831946    0.0930138769655093 C
   0.6827753910072547    0.6711420809390621    0.0940767136127285 C
   0.8082961526339640    0.4218643547516767    0.0929325239953987 C
   0.6796549000426138    0.8366138617414727    0.0911517790924651 C
   0.3061387789907762    0.9231766928558599    0.0919792683280085 N
   0.5648246243356655    0.5062395037120760    0.1425159592912341 Nb
