Title
1.0
   9.8694509999999998    0.0000000000000000    0.0000000000000000
   0.0000000000000000    8.5490480000000009    0.0000000000000000
   0.0000000000000000    0.0000000000000000   20.0000000000000000
C N Y
27 3 1
direct
   0.0566381268425185    0.0900311302220906    0.0828312163946616 C
   0.9314231070486853    0.1722846006390906    0.0863698148027976 C
   0.0580286355105144    0.9228733451012545    0.0832994251033456 C
   0.9331698772614480    0.3390178888574499    0.0874462489637633 C
   0.0572525828306070    0.5903367740358929    0.0818927759304044 C
   0.9331549852148084    0.6734299106790691    0.0876807798906386 C
   0.0574348275784715    0.4226271011971780    0.0816057893518613 C
   0.9317042092212807    0.8395711554707762    0.0865435632631021 C
   0.3068546166161991    0.0887707771862319    0.0875933714879753 C
   0.1810754144291518    0.1711918854890719    0.0829812766058768 C
   0.1811249647536121    0.3398521923206767    0.0820419902936107 C
   0.3049635645717697    0.5907437628768857    0.0881798640885183 C
   0.1813327096238510    0.6727083294848232    0.0826485230130480 C
   0.3059080714030886    0.4216564449268161    0.0880075972286358 C
   0.1813993677631995    0.8408644684502539    0.0840021333565141 C
   0.5548503794317619    0.0908611012532702    0.1015531649538803 C
   0.4288918925015157    0.1752174749656630    0.0960200849052889 C
   0.5536696545746554    0.9219275980361908    0.1013154364138741 C
   0.4278498233269242    0.8366894626755123    0.0963358188643918 C
   0.8063888203356023    0.0894747710967438    0.0921700403323416 C
   0.6835204129667641    0.1746945351001760    0.1033987588349943 C
   0.8063149552774079    0.9219480469540144    0.0919526616292042 C
   0.6907889981862370    0.3384163973785034    0.1147444968381233 C
   0.8113286111638532    0.5919349235655095    0.1013657848443313 C
   0.6898903459084927    0.6729829811371725    0.1136305573352313 C
   0.8116180586987917    0.4201408823119392    0.1015878647689742 C
   0.6825150358721226    0.8366480054229939    0.1026785446861438 C
   0.4239974553040513    0.3381147205034268    0.0995070663419861 N
   0.4223240280725299    0.6769821784750771    0.1002587342955137 N
   0.3068487182605139    0.9230503419308617    0.0878612959168759 N
   0.5408727494495867    0.5058318122553898    0.1634603192641396 Y
