Title
1.0
   9.8694509999999998    0.0000000000000000    0.0000000000000000
   0.0000000000000000    8.5490480000000009    0.0000000000000000
   0.0000000000000000    0.0000000000000000   20.0000000000000000
C N Au
27 4 1
direct
   0.0561678983129448    0.0944885997750219    0.0908281766122174 C
   0.9301062070722311    0.1772299275163808    0.0918100317621463 C
   0.0561886696278404    0.9277748637352924    0.0895607290767716 C
   0.9281342646034105    0.3454886442147010    0.0934727172961509 C
   0.0561804064693913    0.5926898090942536    0.0923204936947931 C
   0.9312954558128256    0.6762420718342836    0.0912894132578277 C
   0.0561916315849745    0.4269296958491793    0.0928529874892187 C
   0.9314423084707302    0.8430164533646995    0.0895945712254217 C
   0.3054289860159049    0.0920379378542159    0.0900672706034205 C
   0.1822390592368449    0.1772398980438259    0.0917951236272278 C
   0.3056634659395565    0.9259082996768658    0.0890481915598064 C
   0.1842330038635701    0.3455025740406383    0.0935164968851241 C
   0.3088169506307826    0.5980555312587109    0.0927453525887421 C
   0.1810594155391975    0.6762507777284351    0.0913340430085344 C
   0.3111362378680104    0.4273195342984276    0.0961684190038584 C
   0.1808973995431150    0.8430212792572020    0.0895761831058954 C
   0.5561793726240408    0.0828561431036369    0.0913874443857687 C
   0.4328461592063950    0.1698809334798291    0.0923345704812944 C
   0.4366969227562476    0.3369794696264296    0.1002262091320274 C
   0.4274818221633516    0.8349814260281030    0.0889754019640570 C
   0.8069220300529099    0.0920163808918497    0.0900700479841932 C
   0.6795146314503738    0.1698626913970206    0.0922562027512803 C
   0.8066932420799329    0.9259016167425321    0.0890572943414924 C
   0.6757048948756623    0.3369427184225547    0.1000684084610586 C
   0.8035470891023594    0.5980351006971125    0.0924695189643019 C
   0.8012324137270135    0.4273064991299816    0.0959447843823127 C
   0.6849023056695045    0.8349768133143254    0.0888169458333252 C
   0.4261931826112156    0.6807830929887871    0.0902039292744829 N
   0.5562507728518634    0.4114753820025482    0.1125330805222233 N
   0.6862138228391934    0.6807804920145827    0.0896905769433479 N
   0.5562079747093555    0.9168728790844930    0.0888382890032423 N
   0.5578710026892569    0.5213984635340795    0.2168220947784515 Au
