Title
1.0
   4.9440799999999996    0.0000000000000000    0.0000000000000000
   0.0000000000000000    8.5647549999999999    0.0000000000000000
   0.0000000000000000    0.0000000000000000   20.0000000000000000
C N Mn
13 2 1
direct
   0.2499360534849737    0.2099851211734662    0.0930147719439742 C
  -0.0047701523607175    0.2921898893641524    0.0916319013770252 C
   0.2509061683427641    0.0442824534496967    0.0880851962112250 C
   0.0059443881079723    0.7961815978777858    0.0973550525334173 C
   0.0011015545430613    0.9601625713045353    0.0864644258773144 C
   0.7488429327651448    0.2071577988093692    0.0872999388283192 C
   0.5037095879123066    0.2900017349421684    0.0999830616117382 C
   0.7507333670233615    0.0417180014484112    0.0841993644368130 C
   0.7546006061763386    0.7073055870284892    0.1030549126083619 C
   0.5002412951589790    0.7952648652577772    0.0996765213914991 C
   0.7539650446789387    0.5346112420268080    0.1072664286815906 C
   0.5018922530648716    0.9598511945391770    0.0888243120161463 C
   0.5221329853649093    0.4457013675839875    0.1231680321154637 C
  -0.0111728368620865    0.4512147607462756    0.0950005785354253 N
   0.2524609023861837    0.7256449467345127    0.1093163469772537 N
   0.2194758502129990    0.5387268677133875    0.1681711548544404 Mn
