Title
1.0
   9.8694509999999998    0.0000000000000000    0.0000000000000000
   0.0000000000000000    8.5490480000000009    0.0000000000000000
   0.0000000000000000    0.0000000000000000   20.0000000000000000
C N Nb
29 2 1
direct
   0.0564851257528862    0.0903908068962932    0.0832528676077257 C
   0.9312368941794881    0.1735287694087297    0.0863111197215620 C
   0.0567985769220177    0.9228400763060471    0.0826601472128067 C
   0.9306237503577707    0.3403170201935757    0.0906396607891115 C
   0.0560236486931443    0.5893664690928542    0.0868401845939597 C
   0.9319593768520784    0.6725576625433672    0.0890102458816959 C
   0.0569160204425872    0.4231244050846419    0.0889242625257462 C
   0.9310764974077070    0.8399807274365014    0.0854199859716100 C
   0.3055479139021139    0.0882786646319227    0.0850775472020535 C
   0.1822072891405119    0.1740478883327822    0.0850463665716641 C
   0.3072921384511552    0.9227560306563470    0.0860953125773691 C
   0.1820864927114672    0.3401435040133402    0.0893214278227149 C
   0.3055541944977997    0.5891968102178488    0.0978496106629188 C
   0.1819346265773385    0.6710215740422338    0.0868209650597096 C
   0.1822686383397675    0.8379522234595445    0.0844524065403906 C
   0.5553242194713923    0.0877290726551250    0.0933922872096034 C
   0.4299436000094788    0.1704483508451810    0.0908849974296301 C
   0.4297322741528928    0.3358004288979744    0.1003873339929540 C
   0.4300401072606301    0.8392822798463805    0.0977718720096501 C
   0.8069198034859606    0.0900202083219487    0.0870744646973397 C
   0.6809675958993049    0.1704496067255821    0.0934923127125158 C
   0.8059923083201812    0.9246338047663691    0.0870962362410220 C
   0.6796609545618891    0.3351682724754225    0.1034751921654782 C
   0.8078529602666477    0.5914792082401487    0.1010067404129151 C
   0.8052055822717182    0.4230884486923669    0.0997916206629829 C
   0.6818516670863173    0.8425610407726036    0.0982203159492183 C
   0.4235130102975032    0.6777239096868504    0.1154440558523160 C
   0.5524307887109602    0.4085821794564098    0.1182493346807073 C
   0.6897838533110642    0.6830950886259893    0.1156083412429888 C
   0.5556221936602159    0.9221422345163934    0.0969497547939895 N
   0.3062022404687930    0.4226072134540698    0.0966513588400244 N
   0.5605846565372246    0.5899320197051576    0.1824566703656426 Nb
