Title
1.0
   4.9440799999999996    0.0000000000000000    0.0000000000000000
   0.0000000000000000    8.5647549999999999    0.0000000000000000
   0.0000000000000000    0.0000000000000000   20.0000000000000000
C N Ta
11 4 1
direct
  -0.0021856918931739    0.2912720073113323    0.0922541085481363 C
   0.2500000000000000    0.0444881952361130    0.0836437490604208 C
  -0.0022108762835301    0.7952678230052125    0.0921579968977642 C
  -0.0011849870972585    0.9608220173929415    0.0815716605896054 C
   0.7500000000000000    0.2090850644160999    0.0817631573144948 C
   0.5021856918931743    0.2912720073113323    0.0922541085481363 C
   0.7500000000000000    0.0433330960709682    0.0767062555119218 C
   0.7500000000000000    0.7037840802663086    0.0969454808799235 C
   0.5022108762835299    0.7952678230052125    0.0921579968977642 C
   0.7500000000000000    0.5348708234948821    0.1240919389629781 C
   0.5011849870972587    0.9608220173929415    0.0815716605896054 C
   0.5098446166590117    0.4372937394606100    0.1214888626050807 N
  -0.0098446166590120    0.4372937394606100    0.1214888626050807 N
   0.2500000000000000    0.7289085833930697    0.1105770771143284 N
   0.2500000000000000    0.2109753575047652    0.0874833950809699 N
   0.2500000000000000    0.5552436252776007    0.1763556887937994 Ta
