Title
1.0
   8.5490480000000009    0.0000000000000000    0.0000000000000000
   0.0000000000000000    8.5490480000000009    0.0000000000000000
   0.0000000000000000    0.0000000000000000   20.0000000000000000
C N Ir
19 5 1
direct
   0.9092522075127168    0.2074203097636406    0.0974808141322871 C
   0.9109503260402000    0.7995707659515580    0.0976898187776190 C
   0.1976811331607383    0.0834054064613778    0.0977267243004457 C
   0.0768309380249235    0.2022375104758205    0.0976971064373381 C
   0.1580655840537609    0.6494782838113780    0.0977485192630713 C
   0.0781153020810693    0.5013409898162948    0.0977999826613228 C
   0.1585300128986488    0.3523828184975416    0.0979119943302406 C
   0.0787584454498548    0.7990058840673141    0.0976380021444591 C
   0.3447939498811567    0.1659985226248797    0.0978834163760733 C
   0.4919720318888515    0.9177327560328472    0.0977835447513157 C
   0.3455239355069050    0.8366096802312497    0.0977376954646695 C
   0.7861919157605594    0.0851208507250672    0.0975088724941762 C
   0.6379411064482354    0.1674275337378175    0.0975880702317683 C
   0.7888620145429927    0.9188027310075081    0.0976836516026676 C
   0.8288564045557496    0.6504232560021730    0.0978094742262345 C
   0.8278510313157518    0.3557040187268871    0.0975338095189374 C
   0.6405790367099005    0.8362087565215116    0.0978605398795551 C
   0.3253120551816686    0.6710407743883464    0.0978227697169008 C
   0.6589270867057468    0.3360223240958514    0.0976057802181492 C
   0.4933128539950098    0.0878984157139063    0.0977821061046780 N
   0.9076091193025816    0.5022351275102522    0.0977382280063665 N
   0.3229957314620613    0.3292750186095769    0.0980563869743185 N
   0.6652158470921544    0.6717477050550408    0.0979679958206306 N
   0.1962274954310627    0.9165672843648187    0.0976615387801267 N
   0.4950564349976856    0.5011332758073529    0.0979881577866286 Ir
