Title
1.0
   9.8694509999999998    0.0000000000000000    0.0000000000000000
   0.0000000000000000    8.5490480000000009    0.0000000000000000
   0.0000000000000000    0.0000000000000000   20.0000000000000000
C N Ru
28 3 1
direct
   0.0559773922190244    0.0911761670104713    0.0828520058664959 C
   0.9308926449041622    0.1745284087103556    0.0839068616396997 C
   0.0576865614936200    0.9243686095212432    0.0828148662143220 C
   0.9299570813344085    0.3423864004135835    0.0867565773638128 C
   0.0567668125756984    0.5907490413620474    0.0846552738855215 C
   0.9326430170989158    0.6742900251548598    0.0861002588838190 C
   0.0566662927550229    0.4233494850735732    0.0854752658845137 C
   0.9330158981837954    0.8408285493690348    0.0845814986425810 C
   0.3057519895960169    0.0872694112556057    0.0888606858674209 C
   0.1826332314314991    0.1724652363316122    0.0857008599187953 C
   0.1820336630006827    0.3395330867529886    0.0882504196288455 C
   0.3032752079058122    0.5881792963328363    0.1024437801401045 C
   0.1821190664261053    0.6739426435364581    0.0886303408761360 C
   0.3059772335782080    0.4206212573561986    0.0998948142771242 C
   0.1823501262622827    0.8407080643423230    0.0862035486726495 C
   0.5559337738040216    0.0854976525451221    0.0942684998252870 C
   0.5558573734184415    0.9206098378915352    0.0999133974683586 C
   0.4295970444750929    0.3308343874337241    0.1066428185317169 C
   0.4269035605779793    0.8397244429575372    0.1044834714146140 C
   0.8057114593537328    0.0897241584818308    0.0849976121275704 C
   0.6797190007750039    0.1715114517730227    0.0908103483675656 C
   0.8074372532684371    0.9243167641107715    0.0869239285982304 C
   0.6805145161859073    0.3360459010495051    0.1010407761515212 C
   0.8080210668998703    0.5940687211614227    0.0966830295448366 C
   0.8045407086598733    0.4251027542378579    0.0955259729059632 C
   0.6847358784057418    0.8403542768143569    0.0983458482682088 C
   0.4172760563212089    0.6810572260275995    0.1207956773409193 C
   0.5549187053966544    0.4028569490888261    0.1210506054265233 C
   0.6947799432175514    0.6819901172173383    0.1113711324941783 N
   0.3062355808758357    0.9247347425627499    0.0900447416792876 N
   0.4293847728231385    0.1664545866896879    0.0950130015031548 N
   0.5603260867762599    0.5909663474339238    0.1706370805902384 Ru
