Title
1.0
   9.8694509999999998    0.0000000000000000    0.0000000000000000
   0.0000000000000000    8.5490480000000009    0.0000000000000000
   0.0000000000000000    0.0000000000000000   20.0000000000000000
C N Y
28 3 1
direct
   0.0570914823175868    0.0920624709015582    0.0866543889075809 C
   0.9326908694369217    0.1736426592121788    0.0894049439707665 C
   0.0578505557712255    0.9245711950141506    0.0869461372147647 C
   0.9321069159645700    0.3409344169472867    0.0934900118754403 C
   0.0572168183061886    0.5908365731243943    0.0902723531521087 C
   0.9325696211051625    0.6731528654249411    0.0949427227714711 C
   0.0582298503954640    0.4232503925942704    0.0912204498497487 C
   0.9330583027798336    0.8395960014701066    0.0921576903647298 C
   0.3069281489975428    0.0893432254866185    0.0852589617396130 C
   0.1830930547244237    0.1743412193346790    0.0865425659931796 C
   0.1849788608073824    0.3410977711426715    0.0890639055247922 C
   0.3067086418076223    0.5945843958504998    0.0890173017374445 C
   0.1804310090759912    0.6757077313547090    0.0872616437149663 C
   0.3123213374763421    0.4262553942924421    0.0900167616849344 C
   0.1808854421165723    0.8414000950506672    0.0854828320942112 C
   0.5580090431776965    0.0856323062046360    0.0922943656051320 C
   0.4317139750202142    0.1684129648075991    0.0878761185058083 C
   0.5558884398742321    0.9206024302838064    0.0984167413143001 C
   0.4357183720265209    0.3343773170657645    0.0912835679975221 C
   0.4280857455760845    0.8412567759646152    0.0914189107819702 C
   0.8082285107181409    0.0883447532026298    0.0905491742124014 C
   0.6828451377214958    0.1689231373809192    0.0920865764758886 C
   0.8079177796771838    0.9224980133530349    0.0941601920397840 C
   0.6819132969442179    0.3355632475228565    0.0970446849601156 C
   0.8086375078164959    0.5914946865422320    0.1075425501167858 C
   0.6911211172159267    0.6787887461114904    0.1237604941810250 C
   0.8061723003566081    0.4230538592241235    0.1011998886872309 C
   0.6843169940577708    0.8383396932733684    0.1058981745872574 C
   0.4230417142985089    0.6844496092528218    0.0920890559650348 N
   0.5585719044088429    0.4083957161814571    0.1001979783896676 N
   0.3058536018861974    0.9252552362563690    0.0842634481431528 N
   0.5154426481410401    0.5740811001711119    0.1778604074412064 Y
