Title
1.0
   9.8694509999999998    0.0000000000000000    0.0000000000000000
   0.0000000000000000    8.5490480000000009    0.0000000000000000
   0.0000000000000000    0.0000000000000000   20.0000000000000000
C N Zn
26 5 1
direct
   0.0565918516165158    0.0926217814839944    0.0884051716981440 C
   0.9307736477201045    0.1749049342292626    0.0909769365054671 C
   0.0567971970968602    0.9245584033577621    0.0869342295977479 C
   0.9291971900788398    0.3421341216871242    0.0944035281262287 C
   0.0557463709665844    0.5899276629585634    0.0896128727952415 C
   0.9320904410277822    0.6734161543052511    0.0909188587784762 C
   0.0576007518739628    0.4233159284262225    0.0925948323229273 C
   0.9320512584974772    0.8408688198693702    0.0887756565344675 C
   0.3054453587407985    0.0885364301130601    0.0883781668390952 C
   0.1828224799157637    0.1755486034386518    0.0895620584750279 C
   0.3063153549056394    0.9233035058223775    0.0877874277309382 C
   0.1834585351050041    0.3417240347198799    0.0925880910314012 C
   0.3076854874144087    0.5936277547843167    0.0935715425554810 C
   0.1809543023498166    0.6718586352656846    0.0881112488684417 C
   0.1813483740857894    0.8389221424913006    0.0868959565137562 C
   0.5556395418673715    0.0832292805880552    0.0949146913415545 C
   0.4316139728208965    0.1678211818892963    0.0924060119177662 C
   0.4355341611539276    0.3345229764780659    0.0978969518356798 C
   0.4272477164279583    0.8347168119756458    0.0935705008786614 C
   0.8069443974811578    0.0898434047151747    0.0905296099139462 C
   0.6800452252329187    0.1683440583700140    0.0946306784835380 C
   0.8069570651303363    0.9243835370447260    0.0898833450958575 C
   0.6761033886667485    0.3344881216116425    0.1007365536099510 C
   0.8054625747006160    0.5950120076840824    0.0993968147037810 C
   0.8016503405780603    0.4252443775313012    0.0996473705420342 C
   0.6851282735354748    0.8369642388523003    0.0968977301187579 C
   0.4231255089719477    0.6779561219474126    0.1001664177778357 N
   0.5533618010444075    0.4088019681224045    0.1083851495775570 N
   0.6895701553147310    0.6820271535680379    0.1076769485937224 N
   0.5564433489195766    0.9155765882982092    0.0962633664038440 N
   0.3119501778535232    0.4245834951832371    0.0954409808581203 N
   0.5539827489050068    0.5914617631875745    0.1777152999745676 Zn
