Title
1.0
   4.9440799999999996    0.0000000000000000    0.0000000000000000
   0.0000000000000000   17.1295089999999988    0.0000000000000000
   0.0000000000000000    0.0000000000000000   20.0000000000000000
C N Hf
28 3 1
direct
   0.0014401518958147    0.1041342904787888    0.2947044257966376 C
   0.2519349087991620    0.1461151819043479    0.2967544336339352 C
   0.2523059505341975    0.2292304016019621    0.3017792682870881 C
   0.0060057890709888    0.3520530667184828    0.3109346222411420 C
   0.0008944869981961    0.2707057357684359    0.3025086303930286 C
  -0.0036044794013637    0.5999811176017614    0.2928927970736876 C
   0.2513732945088751    0.7267601724440786    0.2945196211718422 C
   0.0025077523291545    0.8530479004413500    0.2930847626913121 C
   0.2520109863923240    0.8950880444819296    0.2933245992124413 C
   0.2517155333770624    0.9786620300530005    0.2934148466795247 C
   0.0034322235512739    0.7694963008114171    0.2933250517023348 C
   0.5016230672810188    0.1039993148296384    0.2950074120355931 C
   0.7511680019539901    0.1461646800292280    0.2954617197041468 C
   0.7509211495339911    0.2292925883849155    0.2986494693839401 C
   0.5017664910222401    0.0205295538827563    0.2936503065537201 C
   0.4968027150978876    0.3540119410749746    0.3131778419015139 C
   0.7596394130997450    0.4798950823701544    0.3026962068309376 C
   0.5025009112974305    0.2717397262658415    0.3041024345278886 C
   0.5072869431201299    0.6032346730793005    0.3017761603706450 C
   0.7527405712834976    0.7280653558828570    0.2945154582717204 C
   0.5012525821129153    0.8529101651138046    0.2937450977187337 C
   0.7517192844454538    0.8948565711884685    0.2931885449113014 C
   0.7516447554931867    0.9784339997998042    0.2931509789035828 C
   0.5007708741227369    0.7691419209874591    0.2947828632461269 C
   0.7523929090599667    0.6454314485107020    0.2962910260972929 C
   0.2525269205442949    0.6418003719667476    0.2951589627291061 C
   0.0015838644497126    0.0206370945912334    0.2934275928150589 C
   0.5321516930221973    0.5219160758290267    0.3203773397750108 C
   0.9883348989859815    0.5169777837213524    0.2729844467416778 N
   0.2483214066159946    0.3912959862351503    0.3249499241893135 N
   0.7548239736709516    0.3957587633395249    0.3101257437788520 N
   0.1668339757309974    0.5071836606114988    0.3681024106308147 Hf
