Title
1.0
   4.9440799999999996    0.0000000000000000    0.0000000000000000
   0.0000000000000000    8.5647549999999999    0.0000000000000000
   0.0000000000000000    0.0000000000000000   20.0000000000000000
C N Nb
14 1 1
direct
   0.2500000000000000    0.2065886565091524    0.0882658674188689 C
  -0.0025725096856398    0.2876793593602871    0.0930012910356406 C
   0.2500000000000000    0.0418377367563048    0.0827582846485339 C
   0.0009125494395692    0.7978025368773205    0.0996312002729785 C
  -0.0006517195060502    0.9585842568414508    0.0837268119895316 C
   0.7500000000000000    0.2059142516395105    0.0828596295365876 C
   0.5025725096856397    0.2876793593602871    0.0930012910356406 C
   0.7500000000000000    0.0404266414754583    0.0787128841476214 C
   0.7500000000000000    0.7095271286601914    0.1060277330673583 C
   0.4990874505604307    0.7978025368773205    0.0996312002729785 C
   0.7500000000000000    0.5392477775468700    0.1113598075082476 C
   0.5006517195060504    0.9585842568414508    0.0837268119895316 C
   0.5092819847435881    0.4461029178018636    0.1132177076474637 C
  -0.0092819847435879    0.4461029178018636    0.1132177076474637 C
   0.2500000000000000    0.7318052704206139    0.1163555845488886 N
   0.2500000000000000    0.5443143952300534    0.1770181872326723 Nb
