Title
1.0
   4.9440799999999996    0.0000000000000000    0.0000000000000000
   0.0000000000000000   17.1295089999999988    0.0000000000000000
   0.0000000000000000    0.0000000000000000   20.0000000000000000
C N Au
26 4 1
direct
   0.0007011552422880    0.1053135392719930    0.2980615287002816 C
   0.2503448450128437    0.1476667465557982    0.2986955449577472 C
   0.2506722940030414    0.2325679995793351    0.3000331566271737 C
  -0.0022943031721393    0.2727287268266136    0.3006265439146099 C
  -0.0017486001141897    0.6023854066427178    0.3010865689412186 C
   0.2480291464917283    0.7273447447548674    0.2992201628095907 C
   0.0003303861556534    0.8533048243046304    0.2976746283606816 C
   0.2493353501881278    0.8952122224153766    0.2974234414825989 C
   0.2493900707053713    0.9792921204147738    0.2972038550204672 C
   0.0007365196176490    0.7691362142939978    0.2986258114843788 C
   0.4985876407018923    0.1051213875605881    0.2980080883459055 C
   0.7493732721259224    0.1469581916008435    0.2985496223088516 C
   0.7489472793777737    0.2301141119474136    0.2998326988099729 C
   0.4990487072740118    0.0212073539584987    0.2972863933676739 C
   0.7565258413458508    0.3948297218222854    0.3019719120030299 C
   0.7555602308676260    0.4794178825220953    0.3021529983109032 C
   0.5021127710969674    0.2737481160952479    0.3005338563949021 C
   0.4977720277072218    0.6019389094479376    0.3007801235422897 C
   0.7498229572056161    0.7277696557685480    0.2991515080045372 C
   0.4979077682769584    0.8529669997392295    0.2977442428080483 C
   0.7492855168715209    0.8950922665561454    0.2973529894879921 C
   0.7492766451038032    0.9789839402952518    0.2971412421853309 C
   0.4975954826859642    0.7688431952293665    0.2986647816619974 C
   0.7493313583559332    0.6454132229425207    0.3003173184115983 C
   0.0000473649900247    0.0213083688077020    0.2973164281706898 C
   0.5149925697063010    0.5216201225803644    0.3014630248443799 C
   0.9931037824295679    0.5231777911079670    0.3024578443895066 N
   0.5191242051902284    0.3541382040137159    0.3017402164187053 N
  -0.0138656260449961    0.3521448528079096    0.3017907839326182 N
   0.2462368413467731    0.6431956551564321    0.3003870408857959 N
   0.2537234992546674    0.4383995049798285    0.3017656434164741 Au
