Title
1.0
   8.5490480000000009    0.0000000000000000    0.0000000000000000
   0.0000000000000000    8.5490480000000009    0.0000000000000000
   0.0000000000000000    0.0000000000000000   20.0000000000000000
C N Fe
21 3 1
direct
   0.9095993118491819    0.2083850859378015    0.0979148358362017 C
   0.9120498144489809    0.8010087825716578    0.0977699098046611 C
   0.1989570922595781    0.0830739430379913    0.0981253603813903 C
   0.0744338529288910    0.2042580776350684    0.0981050489240141 C
   0.1562328697911740    0.6491151395748428    0.0979844036728925 C
   0.0733079861415668    0.5030541582368334    0.0980273481896769 C
   0.1556274177193460    0.3566428168905952    0.0981224564289943 C
   0.0793661514114018    0.7987383387226558    0.0979456946024366 C
   0.4946942379980512    0.0834686910234425    0.0978820019886101 C
   0.3460209086422581    0.1641892713393799    0.0980771458873258 C
   0.4946420842380774    0.9137528342593013    0.0978888432908691 C
   0.3475021693838145    0.8315979358318025    0.0980367820145848 C
   0.7870626229190387    0.0865430878267671    0.0977416964124540 C
   0.6391150297458135    0.1665546888550936    0.0977811506657724 C
   0.7896456204528705    0.9192793162458969    0.0977135960397260 C
   0.8292173604794494    0.6517461064312153    0.0978812964323372 C
   0.8250045103701861    0.3594849827661237    0.0979214357349669 C
   0.6426886231451663    0.8340288486990239    0.0978489906185410 C
   0.3230846815876124    0.3348216572016116    0.0980649092116168 C
   0.3236178429626551    0.6677519925056813    0.0979776989348985 C
   0.6601449907882837    0.3378048329183559    0.0978290382835294 C
   0.9065355270017854    0.5050514517812578    0.0980261918623203 N
   0.6684018139501333    0.6708550540133580    0.0979836204914249 N
   0.1988744141985592    0.9160896565468610    0.0981331140296189 N
   0.4895850655861185    0.4974932491473945    0.0979224302611190 Fe
