Title
1.0
   4.9440799999999996    0.0000000000000000    0.0000000000000000
   0.0000000000000000    8.5647549999999999    0.0000000000000000
   0.0000000000000000    0.0000000000000000   20.0000000000000000
C N Ni
14 1 1
direct
  -0.0005348528334023    0.2892820469493637    0.0918216463806049 C
   0.2500000000000000    0.0433739366287100    0.0876748776769161 C
   0.0001488584526823    0.7961788270630228    0.1022389060726498 C
  -0.0000856214705148    0.9608492039888102    0.0887464209189973 C
   0.7500000000000000    0.2056813938154553    0.0841452641003763 C
   0.5005348528334022    0.2892820469493637    0.0918216463806049 C
   0.7500000000000000    0.0415621179316290    0.0835911261941383 C
   0.7500000000000000    0.7100229171102123    0.1048452355287140 C
   0.4998511415473179    0.7961788270630228    0.1022389060726498 C
   0.7500000000000000    0.5408544292680785    0.1066790964135566 C
   0.5000856214705148    0.9608492039888102    0.0887464209189973 C
   0.5096716237184362    0.4474531767381219    0.1078680670041833 C
  -0.0096716237184362    0.4474531767381219    0.1078680670041833 C
   0.2500000000000000    0.7273375048695183    0.1174667242295642 C
   0.2500000000000000    0.2069035039433256    0.0881724639721441 N
   0.2500000000000000    0.5367376869544345    0.1585871311317298 Ni
