Title
1.0
   8.5490480000000009    0.0000000000000000    0.0000000000000000
   0.0000000000000000    8.5490480000000009    0.0000000000000000
   0.0000000000000000    0.0000000000000000   20.0000000000000000
C N Tc
18 6 1
direct
   0.9081643787651883    0.2054124827227077    0.0974037611364751 C
   0.9113171356084514    0.8014571901262861    0.0972526665376703 C
   0.1970692675383528    0.0836592602734637    0.0977199178987993 C
   0.0766865802824614    0.2007891405482304    0.0976081742111398 C
   0.1555972616749620    0.6518616368396346    0.0978670639609868 C
   0.0756898842369413    0.5005893809633171    0.0978084476907385 C
   0.1558299386887998    0.3533932785539773    0.0978154991489647 C
   0.0791248737552242    0.7999331245324072    0.0974836182706537 C
   0.3474256545540146    0.1647460967521026    0.0978667148259648 C
   0.4935799888920234    0.9160689934542338    0.0978074284827394 C
   0.3434526023563140    0.8369430049886624    0.0979366964143384 C
   0.7886251857276063    0.0864629282913331    0.0972665130459677 C
   0.6410396123153816    0.1660657215904316    0.0976859087951293 C
   0.7909376406762427    0.9190230343179866    0.0972126388804134 C
   0.8295169180531807    0.6522758911380399    0.0976684102844830 C
   0.8262322123776896    0.3527389825924133    0.0976787761980879 C
   0.6436648433985142    0.8373399334316496    0.0977022926201454 C
   0.3249763970776383    0.3304116325029705    0.0979941679955569 C
   0.4946334687759992    0.0861465022789620    0.0978596684140115 N
   0.9042329528184799    0.5025963820219748    0.0978022655540515 N
   0.3185090559751010    0.6768443250381205    0.0981414415138675 N
   0.6633421022531126    0.3284677020869515    0.0980035502984384 N
   0.6700724516193107    0.6749132733210597    0.0980425110499056 N
   0.1962854120140745    0.9159068447345562    0.0977099700748940 N
   0.4894061805649283    0.5007432568985477    0.0983668966965502 Tc
