Title
1.0
   4.9440799999999996    0.0000000000000000    0.0000000000000000
   0.0000000000000000    8.5647549999999999    0.0000000000000000
   0.0000000000000000    0.0000000000000000   20.0000000000000000
C N Sc
13 1 1
direct
  -0.0002215486578898    0.2919165316036016    0.0943831805235751 C
   0.2500000000000000    0.0441855282041963    0.0957845867225349 C
  -0.0008486243755521    0.9592587475836503    0.0956525759651240 C
   0.7500000000000000    0.2071563809041022    0.0893695694938910 C
   0.5002215486578899    0.2919165316036016    0.0943831805235751 C
   0.7500000000000000    0.0419585106369103    0.0903189393114210 C
   0.7500000000000000    0.7113234275997419    0.0992366125333702 C
   0.7500000000000000    0.5356423133178130    0.0990188381316393 C
   0.5008486243755521    0.9592587475836503    0.0956525759651240 C
   0.5017286945711876    0.4544582270851045    0.1014644763117497 C
  -0.0017286945711875    0.4544582270851045    0.1014644763117497 C
  -0.0036833609260278    0.7945436501226339    0.1025440177677751 C
   0.5036833609260277    0.7945436501226339    0.1025440177677751 C
   0.2500000000000000    0.2071685840532912    0.0951003460418610 N
   0.2500000000000000    0.6238919424939674    0.1510626066288378 Sc
