Title
1.0
   4.9440799999999996    0.0000000000000000    0.0000000000000000
   0.0000000000000000   17.1295089999999988    0.0000000000000000
   0.0000000000000000    0.0000000000000000   20.0000000000000000
C N Os
29 1 1
direct
  -0.0080545970375913    0.1055903210572049    0.2947167775852890 C
   0.2401452296728088    0.1479690169846468    0.2955528212978987 C
   0.2364612895378555    0.2316759131465032    0.2990254616925353 C
  -0.0141739090777975    0.2737930329093485    0.3038912858120904 C
   0.0128926822265783    0.6005474142020170    0.3024607014591659 C
   0.2557114231920648    0.7277080861229641    0.2959985875508182 C
   0.0014151643399320    0.8537913681331851    0.2934891189074149 C
   0.2505458293008274    0.8957832695273323    0.2931694875721429 C
   0.2467653144036555    0.9796595430641521    0.2931039653983259 C
   0.0050051240359575    0.7699344103509546    0.2947166945977961 C
   0.4918605984281237    0.1058743642850607    0.2935704449808644 C
   0.7414467830114618    0.1476858544935583    0.2944802342766291 C
   0.7372472304970915    0.2317498802869546    0.2965774522552642 C
   0.4954639101751753    0.0219038758241936    0.2929594025919661 C
   0.7481022994938776    0.3931625111840419    0.3052353934233304 C
   0.7612746423081519    0.4785454420352028    0.3050548366525340 C
   0.4847722153734557    0.2735465546545238    0.2961141601490738 C
   0.5100076942816932    0.6027749428484387    0.3012461559266820 C
   0.7571815023590752    0.7276225593039120    0.2954394159633018 C
   0.5017189899034363    0.8535825016482993    0.2933381107750633 C
   0.7502910146970028    0.8957629333686508    0.2930761959167396 C
   0.7465303793153277    0.9797517941057942    0.2929693868495112 C
   0.5055536715162672    0.7695822301707467    0.2945619079294801 C
   0.7612044949418127    0.6434458247106883    0.2985312418927364 C
   0.2590062876767243    0.6441810756244321    0.3001004317662331 C
  -0.0044539186757209    0.0217090800844608    0.2934959719568911 C
   0.5173165589412657    0.5203678461845803    0.3093756294206462 C
   0.0090284532255843    0.5162962341426673    0.3086332612888241 C
   0.4986140944244555    0.3566378046450331    0.2967544208950771 C
  -0.0182616604196171    0.3533326376093068    0.3170119733118373 N
   0.2793882079310646    0.4373736772911422    0.3404090699037905 Os
