Title
1.0
   9.8694509999999998    0.0000000000000000    0.0000000000000000
   0.0000000000000000    8.5490480000000009    0.0000000000000000
   0.0000000000000000    0.0000000000000000   20.0000000000000000
C N Re
29 2 1
direct
   0.0565443610777603    0.0908331408286138    0.0812954468150334 C
   0.9310724549718520    0.1732480776045057    0.0843016342698856 C
   0.0557286104459213    0.9236065840797044    0.0822780485656089 C
   0.9308460097631357    0.3402479061942691    0.0885175968080329 C
   0.0565785101630663    0.5891762127295728    0.0859377418708643 C
   0.9319652595721774    0.6722719340168108    0.0900456088273857 C
   0.0569073997265310    0.4232676491739064    0.0861690923533643 C
   0.9308602491750249    0.8393298802420999    0.0860565215525895 C
   0.3058220157024054    0.0898829083456539    0.0846036317429272 C
   0.1820964010806940    0.1742671744829547    0.0830760779593548 C
   0.3058191090674153    0.9239012229807962    0.0865592417426928 C
   0.1833676753226004    0.3419278678283498    0.0868113505579060 C
   0.3035808327252211    0.5936450077775000    0.0995946058550062 C
   0.1808118734485505    0.6736213009906569    0.0881934182961116 C
   0.3086824561418780    0.4248026186564066    0.0970210351115422 C
   0.1806260179826797    0.8405159264777793    0.0852987134115093 C
   0.5559582806338361    0.0847794040412888    0.0949124242811045 C
   0.4313224127259558    0.1695407669485805    0.0923620493974816 C
   0.4316679681681309    0.3340483517437785    0.1031059660995377 C
   0.5567158137280629    0.4036788397752393    0.1236616429829330 C
   0.4277324133538620    0.8411564219763569    0.0985127055347368 C
   0.8072335014107348    0.0886168109237277    0.0865952518381111 C
   0.6819416715247999    0.1679337777557631    0.0948501206907155 C
   0.8054180003230615    0.9226510190066515    0.0879123587044027 C
   0.6830685133668378    0.3321998102862282    0.1063750255244959 C
   0.8104505875595737    0.5903829731866220    0.1042764425893788 C
   0.6932825045727806    0.6822773544933155    0.1225885575248140 C
   0.8067895255343400    0.4218344435629998    0.1008709013800538 C
   0.6826405970616407    0.8404280476132112    0.1006194944030627 C
   0.4173394867133972    0.6858460870450509    0.1181383522591269 N
   0.5550743533495193    0.9191023033488488    0.0981678577947554 N
   0.5516941336065622    0.5912241758827449    0.1749660832555201 Re
