Title
1.0
   4.9440799999999996    0.0000000000000000    0.0000000000000000
   0.0000000000000000   17.1295089999999988    0.0000000000000000
   0.0000000000000000    0.0000000000000000   20.0000000000000000
C N W
28 2 1
direct
  -0.0034142778119604    0.1051521436255396    0.2966968557237572 C
   0.2446527259291582    0.1478112059166650    0.2970061166005813 C
   0.2426343907452339    0.2318188406514849    0.2990284516996349 C
  -0.0060438836297211    0.2749273154191330    0.3031742330030253 C
   0.0044666342690588    0.6006275241165614    0.3025007176610297 C
   0.2501831395006575    0.7270002642291656    0.2962707978642267 C
   0.0002883070072146    0.8531886494002989    0.2958035424227253 C
   0.2491764537889805    0.8953500216060551    0.2956812646586900 C
   0.2479834635515585    0.9793738094719825    0.2957969423626003 C
   0.0013753993463421    0.7690388514751644    0.2961416774105574 C
   0.4961744960941424    0.1057188590445824    0.2954746691355093 C
   0.7475081938280264    0.1475558199383010    0.2958363623762348 C
   0.7464398313758930    0.2314802253127560    0.2964523709900100 C
   0.4973568706903886    0.0216960628644043    0.2954326046234830 C
   0.7493289064457512    0.3949808795593363    0.3017631899626640 C
   0.7518870839004219    0.4796424467752956    0.3039206120444899 C
   0.4936498273633965    0.2727009934961308    0.2947924841442572 C
   0.4994956078408337    0.6030918310686698    0.2953575634769287 C
   0.7515255840892979    0.7273056202073191    0.2953164357382678 C
   0.4982714284361898    0.8529208689259491    0.2952152716531796 C
   0.7487897812622321    0.8950338235845582    0.2953859809506244 C
   0.7476239659526654    0.9791099042612882    0.2955012427288320 C
   0.4996074531997774    0.7687191677851899    0.2950699632280065 C
   0.7529355473294301    0.6442791639442781    0.2960335448778638 C
  -0.0023470348669978    0.0212070464030193    0.2960626891652956 C
   0.5032766916351410    0.5212653836601084    0.2973472637204673 C
   0.0049440958405533    0.5185806962802313    0.3143912522795237 C
   0.5042943800312416    0.3548006447478736    0.2925932161538721 C
  -0.0095356022357742    0.3559825761914463    0.3148113806314960 N
   0.2508044188170722    0.6443209219815422    0.2979869592306985 N
   0.2966731202737943    0.4366604380556657    0.3422143434814207 W
