Title
1.0
   4.9440799999999996    0.0000000000000000    0.0000000000000000
   0.0000000000000000    8.5647549999999999    0.0000000000000000
   0.0000000000000000    0.0000000000000000   20.0000000000000000
C N Co
13 2 1
direct
  -0.0014517488388300    0.2884412429028342    0.0911414561766671 C
   0.2500000000000000    0.0443185959074111    0.0868599078019202 C
   0.0030157928185484    0.7983548458933885    0.1027694011042443 C
  -0.0001007408203214    0.9610077567237362    0.0877961662572542 C
   0.7500000000000000    0.2056747362306460    0.0827749245728690 C
   0.5014517488388296    0.2884412429028342    0.0911414561766671 C
   0.7500000000000000    0.0409642541249480    0.0820730778611991 C
   0.7500000000000000    0.7095835801093110    0.1073409061703092 C
   0.4969842071814517    0.7983548458933885    0.1027694011042443 C
   0.7500000000000000    0.5377759958682042    0.1089821985635747 C
   0.5001007408203211    0.9610077567237362    0.0877961662572542 C
   0.5073363635357850    0.4454734081034460    0.1100734707196450 C
  -0.0073363635357850    0.4454734081034460    0.1100734707196450 C
   0.2500000000000000    0.7315247392464036    0.1170102764355694 N
   0.2500000000000000    0.2058541405397989    0.0875985434619531 N
   0.2500000000000000    0.5377494507264683    0.1563111766169935 Co
