Title
1.0
   8.5490480000000009    0.0000000000000000    0.0000000000000000
   0.0000000000000000    8.5490480000000009    0.0000000000000000
   0.0000000000000000    0.0000000000000000   20.0000000000000000
C N Cr
19 5 1
direct
   0.9080933733881794    0.2049778228262733    0.0976533270383673 C
   0.9079041573513202    0.5025914777329363    0.0977030440925270 C
   0.9101574223805012    0.8015133051934711    0.0976145096869578 C
   0.1964234620024073    0.0838217876135831    0.0977015418841732 C
   0.0759680903985826    0.2018401283420098    0.0976500883782545 C
   0.1588769536835015    0.6515777021263657    0.0977066552594179 C
   0.0792495114823857    0.5011545740479592    0.0976968990808840 C
   0.1591730937376703    0.3515893516866339    0.0977500831276568 C
   0.0783723273230888    0.7986588514948919    0.0976435281208199 C
   0.4927032433585651    0.0878324592759708    0.0977946337660896 C
   0.3436967201001677    0.1656883461931847    0.0978164507334465 C
   0.4922301260468834    0.9166273173495134    0.0977263216976138 C
   0.3435240143319993    0.8359589527260847    0.0977514047218357 C
   0.7879481876114990    0.0861809072921715    0.0976836095571524 C
   0.6404781239401359    0.1684525843294174    0.0978319627418912 C
   0.7887627033251537    0.9192806676159181    0.0976415075493418 C
   0.8290735521927763    0.6517072082219426    0.0976880853507104 C
   0.8271389935387645    0.3533442920180445    0.0977678416726281 C
   0.6406627234284540    0.8354101213466583    0.0977036135037334 C
   0.3205019519906539    0.3280261993986406    0.0979315419158432 N
   0.3204018155126952    0.6772438161968940    0.0978218699154134 N
   0.6650084504889872    0.3303747351151139    0.0979488468796903 N
   0.6660175872107330    0.6739801638550712    0.0977947829988813 N
   0.1977208234074830    0.9161234081078857    0.0977267705867888 N
   0.4953245917674045    0.5008338198933637    0.0979560797398617 Cr
