Title
1.0
   4.9440799999999996    0.0000000000000000    0.0000000000000000
   0.0000000000000000    8.5647549999999999    0.0000000000000000
   0.0000000000000000    0.0000000000000000   20.0000000000000000
C N Os
11 4 1
direct
  -0.0041427192059273    0.2918705960347968    0.0916989863528754 C
   0.2500000000000000    0.0443361552537441    0.0888054922089458 C
   0.0026495683292094    0.7952718301648688    0.0994077706322406 C
   0.0008580773965336    0.9607444566118009    0.0878894854476187 C
   0.7500000000000000    0.2066631824188245    0.0841149698719597 C
   0.5041427192059272    0.2918705960347968    0.0916989863528754 C
   0.7500000000000000    0.0413069847153110    0.0820293637419498 C
   0.7500000000000000    0.7048578047051420    0.1027950232177428 C
   0.4973504316707906    0.7952718301648688    0.0994077706322406 C
   0.7500000000000000    0.5332942353518088    0.1058423254082004 C
   0.4991419226034666    0.9607444566118009    0.0878894854476187 C
   0.5133415006917543    0.4470056423296099    0.1078328733037845 N
  -0.0133415006917545    0.4470056423296099    0.1078328733037845 N
   0.2500000000000000    0.7273943875351871    0.1143411955603421 N
   0.2500000000000000    0.2122690017414149    0.0903799711254914 N
   0.2500000000000000    0.5400931979964160    0.1705454273923388 Os
