Title
1.0
   4.9440799999999996    0.0000000000000000    0.0000000000000000
   0.0000000000000000   17.1295089999999988    0.0000000000000000
   0.0000000000000000    0.0000000000000000   20.0000000000000000
C N Cr
29 1 1
direct
  -0.0005055175901017    0.1044805144137632    0.2946868486001707 C
   0.2490514479658578    0.1467725423670729    0.2954663978416793 C
   0.2484766295746240    0.2300811986317677    0.2987581459233274 C
   0.0010395632146222    0.2740447063291037    0.3020031561154605 C
   0.0012542793603465    0.6013780356876685    0.3007818471998724 C
   0.2490014926193809    0.7271446462068476    0.2954586675101241 C
   0.0005992281921773    0.8531791664324604    0.2939786888715862 C
   0.2497857885557685    0.8952461125245800    0.2938169061994703 C
   0.2498214030769398    0.9790100558320756    0.2937459718744123 C
   0.0002988368160905    0.7692529081412576    0.2946666611345274 C
   0.5000482677061541    0.1048722281020694    0.2944433736372440 C
   0.7505297359389976    0.1467526929921429    0.2952564213574388 C
   0.7511937569798196    0.2307070127255332    0.2982535253596045 C
   0.4998256526886199    0.0210029857863292    0.2937789267798897 C
   0.7452691289828247    0.3957881577009540    0.3081190440552227 C
   0.7457025399699148    0.4818881326495906    0.3070938189677741 C
   0.4988172962284655    0.2714987354563049    0.3000660061694773 C
   0.4972949677161745    0.6037187384878728    0.2986646663119490 C
   0.7502373552135341    0.7279301531405229    0.2948564202515065 C
   0.4986799326926010    0.8530115118909700    0.2938514089616588 C
   0.7495154617281248    0.8948153444893957    0.2937519020767833 C
   0.7495038517859759    0.9787583932679524    0.2937232165207402 C
   0.4989401896719191    0.7689501129103893    0.2944231814810127 C
   0.7504498266887070    0.6448558162536755    0.2969953810275793 C
  -0.0004537196891620    0.0208037505604514    0.2939091065170255 C
   0.4980073058426986    0.5223681041838155    0.3038238209327950 C
   0.0012884900291934    0.5190775131454841    0.3086666117102974 C
   0.5006950061761587    0.3536277327267054    0.3061049115698822 C
  -0.0014380757436369    0.3574775113433984    0.3099511981976308 C
   0.2485316727023697    0.6450880491475887    0.2979764025487266 N
   0.2785452049048426    0.4377594364722536    0.3379873642950835 Cr
