Title
1.0
   4.9440799999999996    0.0000000000000000    0.0000000000000000
   0.0000000000000000   17.1295089999999988    0.0000000000000000
   0.0000000000000000    0.0000000000000000   20.0000000000000000
C N V
28 3 1
direct
   0.0000780667540877    0.1043575869483677    0.2847096926268800 C
   0.2500391208579320    0.1461300822671247    0.2880401388986578 C
   0.2500177692000958    0.2290450688115042    0.2973412798719383 C
   0.0017125361530038    0.3515364807705539    0.3176619477324877 C
  -0.0012825104779979    0.2702557836824253    0.3022510920760410 C
  -0.0046074859507901    0.6050843053454126    0.3092522220496065 C
   0.2500019739285470    0.7280472985859254    0.2924189499659268 C
   0.0005516242837353    0.8535798154719699    0.2825816617965502 C
   0.2500002547018584    0.8955197261316183    0.2814689027945122 C
   0.2500261091953179    0.9791316908129903    0.2808187403767599 C
   0.0009759830900134    0.7700937460695422    0.2875446069338773 C
   0.4999931091450945    0.1043513584717807    0.2847192737199999 C
   0.7500252090800462    0.1461590875686884    0.2872641312188570 C
   0.7499875477885890    0.2288357968382969    0.2953393281494575 C
   0.5000837805579161    0.0209094904912221    0.2813379563516707 C
   0.4982188837602109    0.3515419803365561    0.3177749514692349 C
   0.7499216958070839    0.3977634295578830    0.3222115647301835 C
   0.7497251481808184    0.4834870176791395    0.3238456086887851 C
   0.5012814665290311    0.2702500197651644    0.3023009083398395 C
   0.5045153225441498    0.6051199127296054    0.3097285201227216 C
   0.7499119933860405    0.7291817093468654    0.2902862693932278 C
   0.4994337251665154    0.8535997954234082    0.2826192269539388 C
   0.7500191599747639    0.8953149368192226    0.2811528736108594 C
   0.7500373397986485    0.9789037606930066    0.2805543406280006 C
   0.4989836340987260    0.7701218243520798    0.2876087735492789 C
   0.7498519059339067    0.6467254771940608    0.3002795449722704 C
   0.2500567864454618    0.6445205285789620    0.3042890314855105 C
  -0.0000139800721828    0.0209179298100627    0.2813284386689014 C
   0.5153317610153683    0.5263846080747541    0.3267404218745019 N
   0.9847457198426813    0.5261587890180318    0.3249709936058493 N
   0.2499917248129132    0.3851211459586188    0.3310524863578462 N
   0.2472076244684192    0.4804008163951463    0.3830711209857816 V
