Title
1.0
   9.8694509999999998    0.0000000000000000    0.0000000000000000
   0.0000000000000000    8.5490480000000009    0.0000000000000000
   0.0000000000000000    0.0000000000000000   20.0000000000000000
C N Hf
25 5 1
direct
   0.0561373153766391    0.0903204089143757    0.0925223140469001 C
   0.9323137198530362    0.1723038975577643    0.0974204720141770 C
   0.0577924640535557    0.9224402041321684    0.0928894986832061 C
   0.9328786805173713    0.3399217441778901    0.0975613075414465 C
   0.0572150377241812    0.5899031688913694    0.0923789913584196 C
   0.9332225395665393    0.6727901437769345    0.0975978976647242 C
   0.0570474865658026    0.4228945997724081    0.0920482715581334 C
   0.9329159680923996    0.8396613983502628    0.0973481631802101 C
   0.3078529147581241    0.0885674976869978    0.0875120932377677 C
   0.1814462629409835    0.1720816106056578    0.0883687265077396 C
   0.1805917742868293    0.3383179738937606    0.0882154361177636 C
   0.3057183542905414    0.5898791092973489    0.0854758974007115 C
   0.1811149149150968    0.6740418739249013    0.0890980915527537 C
   0.3060919088081206    0.4218608844382249    0.0854179749307118 C
   0.1816659912723744    0.8390915258217994    0.0894965458553173 C
   0.5578328818903957    0.0927505790259624    0.0982466874881637 C
   0.4298456986660579    0.1724829368725443    0.0903506592341734 C
   0.5565827306158321    0.9201365995281007    0.0983982215319555 C
   0.4295217220530866    0.8386519750140468    0.0911249867155631 C
   0.8053299070183243    0.0899853315732789    0.1009693812833297 C
   0.6823439810062724    0.1778042333175227    0.1046878240229514 C
   0.8056429120578592    0.9221731188899613    0.1005500381324605 C
   0.8100231772147504    0.5898772683614424    0.1046431674936831 C
   0.8096462065732601    0.4225919858176921    0.1049041447523101 C
   0.6824674371297840    0.8337869427237260    0.1040558999062580 C
   0.4264207996192352    0.3356000512202176    0.0881272502034203 N
   0.4259699071591819    0.6790330818651715    0.0878988271585191 N
   0.6876253230804008    0.3421420168915461    0.1133085461439862 N
   0.6880404215718026    0.6709352629773885    0.1122293355084518 N
   0.3083953519599351    0.9226432200505473    0.0879828437403171 N
   0.5334422093622253    0.5062043546289867    0.1401355050345324 Hf
