Title
1.0
   9.8694509999999998    0.0000000000000000    0.0000000000000000
   0.0000000000000000    8.5490480000000009    0.0000000000000000
   0.0000000000000000    0.0000000000000000   20.0000000000000000
C N Rh
30 1 1
direct
   0.0562521847465218    0.0896795692569799    0.0821865719966945 C
   0.9307778488350841    0.1726154300278966    0.0850866083459464 C
   0.0562434739794117    0.9232078728369486    0.0815817647490459 C
   0.9302320314255165    0.3405334191300768    0.0895441528139669 C
   0.0562278161763357    0.5889844912096518    0.0861156873566368 C
   0.9314809407924625    0.6727247648271819    0.0878617010826562 C
   0.0562221217889357    0.4231575200401906    0.0877180448603195 C
   0.9308550502371900    0.8394045915524543    0.0842369500767299 C
   0.3054061865777753    0.0893225500054103    0.0861553643170278 C
   0.1817121367093606    0.1726314433324403    0.0850569151177375 C
   0.3065705771375213    0.9230655111766332    0.0860649331646356 C
   0.1822278627025599    0.3405466976008025    0.0895293170733733 C
   0.3043848825936493    0.5913685603947865    0.1000099953987965 C
   0.1809883964791889    0.6727191381718788    0.0878626846518767 C
   0.3055515695758654    0.4223687941351467    0.0989643391611389 C
   0.1816196446519606    0.8393941483979162    0.0842182153700659 C
   0.5562498785957178    0.0869893596745698    0.0941226204957078 C
   0.4314242921065830    0.1696438421393806    0.0932182564395734 C
   0.4311680953088020    0.3352619950883173    0.1030133136303750 C
   0.4222621025112196    0.6819982516293750    0.1136580413402794 C
   0.5562193027085267    0.4068375451697423    0.1170221592210820 C
   0.4306517513753289    0.8407779177852618    0.0972154119266780 C
   0.8070878846473379    0.0893105939657648    0.0861959415181328 C
   0.6810870996201693    0.1696429353509405    0.0932531844556798 C
   0.8059095751714641    0.9230581818971983    0.0860966261901227 C
   0.6813108679878684    0.3352630995632324    0.1030385531700864 C
   0.8080961517573081    0.5913614273675705    0.1000155825254716 C
   0.6902320153043405    0.6819834725223196    0.1136680573800596 C
   0.8069164010566744    0.4223618123114845    0.0989845109186295 C
   0.6818248790390898    0.8407656044151832    0.0972271811496601 C
   0.5562409499016211    0.9225627257165724    0.0962483836967967 N
   0.5562050284986154    0.5907027333066999    0.1705039304050511 Rh
