Title
1.0
   9.8694509999999998    0.0000000000000000    0.0000000000000000
   0.0000000000000000    8.5490480000000009    0.0000000000000000
   0.0000000000000000    0.0000000000000000   20.0000000000000000
C N Os
27 3 1
direct
   0.0557901684376017    0.0899701898959319    0.0838070655974675 C
   0.9309539307140138    0.1714589554254319    0.0851013788647259 C
   0.0571058264884550    0.9230301020979684    0.0842340356608042 C
   0.9343628245509300    0.3384032180149518    0.0822590145283027 C
   0.0581195505666496    0.5899798280592771    0.0781644284621915 C
   0.9342845474245033    0.6738925690626085    0.0821107633563099 C
   0.0583612044812968    0.4229895320064399    0.0780800875162935 C
   0.9312360810259590    0.8401816814386110    0.0850901471395948 C
   0.3069356656311034    0.0897499765999155    0.0925492225414225 C
   0.1810927867018350    0.1712337732399214    0.0852530200154809 C
   0.1817706643230738    0.3389603755384544    0.0831191521868884 C
   0.3018853060009433    0.5902063463395636    0.0940374616498813 C
   0.1818256420323349    0.6740022359266312    0.0833358774080127 C
   0.3025284772726983    0.4230112860604781    0.0940090559359295 C
   0.1813087352442469    0.8410326896950763    0.0859747268114390 C
   0.5546533328725541    0.0917953488852497    0.1054457555777193 C
   0.4279502997825255    0.1768975269277961    0.1030955354774506 C
   0.5531732191714022    0.9209243510872963    0.1048496160968757 C
   0.4265707999950643    0.8352071742907717    0.1032293839321190 C
   0.8039691440403114    0.0900369752907299    0.0925408168304224 C
   0.6813780784592337    0.1768979254608137    0.1030087315891558 C
   0.8038858820154848    0.9211488462706831    0.0922057024704571 C
   0.6905653092954065    0.3462619223241103    0.1111442676819862 C
   0.8143176148427906    0.5891540225283832    0.0918556414118695 C
   0.6892991875517124    0.6648537362758615    0.1082058399459978 C
   0.8148173523030938    0.4223288238320228    0.0926230600923492 C
   0.6801471620496409    0.8339202830975593    0.1016435330747777 C
   0.4204805055603665    0.3416118301947322    0.1111815544669089 N
   0.4187272983947336    0.6741697555861367    0.1117719498076883 N
   0.3069022673556719    0.9224048175553105    0.0925776023300567 N
   0.5587361354143778    0.5051589009912862    0.1384605715394701 Os
