Title
1.0
   4.9440799999999996    0.0000000000000000    0.0000000000000000
   0.0000000000000000   17.1295089999999988    0.0000000000000000
   0.0000000000000000    0.0000000000000000   20.0000000000000000
C N Ag
27 3 1
direct
  -0.0011524023188200    0.1042637789841974    0.2979282190561994 C
   0.2469783332496980    0.1469996376386349    0.2986270402276680 C
   0.2456311685201542    0.2305953691044427    0.3002267983200521 C
  -0.0051145006214270    0.2729515973886202    0.3011470612395882 C
   0.0027339500018585    0.6035762767156728    0.3009148413058474 C
   0.2536879642864454    0.7279013629555138    0.2988765165797569 C
   0.0025120230357191    0.8532125160919730    0.2971710726497386 C
   0.2508448429316112    0.8954277826178827    0.2968171735133465 C
   0.2499313374027308    0.9790847190606417    0.2966972930231094 C
   0.0041778831434969    0.7692039374001169    0.2982201453425789 C
   0.4981354099774888    0.1047665187778789    0.2979111551692983 C
   0.7493315233972533    0.1460268035492801    0.2986330527398890 C
   0.7483063584471528    0.2294492342583775    0.3002389108079254 C
   0.4993291845562877    0.0209991803454184    0.2969524909380603 C
   0.7475460324217862    0.3951867314920652    0.3026776522510121 C
   0.7524736323564438    0.4815662172066657    0.3026951428096147 C
   0.4980661622520617    0.2715016881984390    0.3009211574033438 C
   0.5049896865288248    0.6024248827894743    0.3012017770160050 C
   0.7511881272186038    0.7287108880798018    0.2988798263525156 C
   0.4997693903834773    0.8535748392549836    0.2971546487522759 C
   0.7508535479231431    0.8949454547893705    0.2968556360149010 C
   0.7498312100190658    0.9787927067384518    0.2967354957064039 C
   0.5003903928830661    0.7696849202987677    0.2982323324979583 C
   0.7535299609998409    0.6461853057559491    0.3003349484945183 C
  -0.0001581978553145    0.0207235480134065    0.2969476619441785 C
   0.9901992274038312    0.5231300428869021    0.3018933185895084 C
   0.5122182422381720    0.3526335366433196    0.3019129952596644 C
   0.5121054056266884    0.5235047457050830    0.3028352908481844 N
  -0.0150627131423354    0.3531956124156353    0.3028353248402441 N
   0.2565797469844410    0.6440289063193254    0.3002918840278410 N
   0.2501540697485564    0.4370932585237048    0.3022931362787241 Ag
