Title
1.0
   9.8694509999999998    0.0000000000000000    0.0000000000000000
   0.0000000000000000    8.5490480000000009    0.0000000000000000
   0.0000000000000000    0.0000000000000000   20.0000000000000000
C N Fe
28 2 1
direct
   0.0560421818558894    0.0890110104812611    0.0936665329955988 C
   0.9314136277296078    0.1717526659952705    0.0939716882102834 C
   0.0560401594401741    0.9233284532037233    0.0936605044352146 C
   0.9342419233469538    0.3381825275458840    0.0940253193954179 C
   0.0573496795529702    0.5891724611399494    0.0937227904940254 C
   0.9342439164835813    0.6741387066167895    0.0939629144233286 C
   0.0573426280292893    0.4231748319176217    0.0937321376991068 C
   0.9314157998159635    0.8405722080166330    0.0939280152915299 C
   0.3054693665092513    0.0901036465622349    0.0947126056091802 C
   0.1805758970835580    0.1719674880461986    0.0939824049217527 C
   0.3054749642305403    0.9221909518713249    0.0947233025390932 C
   0.1803997223649856    0.3392204431147305    0.0939789410853251 C
   0.3036776759930068    0.5913980345076586    0.0947473455217730 C
   0.1804112008741502    0.6731049723152206    0.0939902429050015 C
   0.3036861715274952    0.4208759190447283    0.0947233375623371 C
   0.1805754552595743    0.8403651775967362    0.0939855678501978 C
   0.5544096631236387    0.0906737373429871    0.0961211283438354 C
   0.4284016541983505    0.1779851373766541    0.0956257329665375 C
   0.5544120824730241    0.9215878125067614    0.0961199259941245 C
   0.4284055171144607    0.8342995319457254    0.0956481600053397 C
   0.8057397904773932    0.0899021047257278    0.0947671418195284 C
   0.6811131549869192    0.1765519814970399    0.0959028199664471 C
   0.8057406758485374    0.9224079283291218    0.0947341113669925 C
   0.6869558396347970    0.3423328495945475    0.0962856017269894 C
   0.8124848028366193    0.5905783932419622    0.0950020306202871 C
   0.6869575533558663    0.6700047214713748    0.0962043136716496 C
   0.8124833435481750    0.4217412768195238    0.0950579857011248 C
   0.6811271658950815    0.8357654648068428    0.0958527463049866 C
   0.4242116964095158    0.3396732114597003    0.0956433305364948 N
   0.4242062709428613    0.6726242931720983    0.0956753145605257 N
   0.5581254190577795    0.5061870577339813    0.0968110054760118 Fe
