Title
1.0
   9.8694509999999998    0.0000000000000000    0.0000000000000000
   0.0000000000000000    8.5490480000000009    0.0000000000000000
   0.0000000000000000    0.0000000000000000   20.0000000000000000
C N Co
27 3 1
direct
   0.0556338294096441    0.0895917291312140    0.0906100559698085 C
   0.9308366870982037    0.1725265178531600    0.0906400233888080 C
   0.0574508853114426    0.9236338354039053    0.0908345865851247 C
   0.9332885806850654    0.3400847708022380    0.0894020595083362 C
   0.0565340140354215    0.5901666653832993    0.0884521938148862 C
   0.9332941421024090    0.6748427291071457    0.0897031782677094 C
   0.0570849493014934    0.4232022419485325    0.0883979701402863 C
   0.9325998842939233    0.8408833222417048    0.0910876112790013 C
   0.3064400555637631    0.0893833743504459    0.0953076036796873 C
   0.1804311068566790    0.1701768266952989    0.0917571275270829 C
   0.1801150339453163    0.3373859053081462    0.0909342865435556 C
   0.3020932372779421    0.5884127806480075    0.0957376207907457 C
   0.1804747358187065    0.6736125391971296    0.0910001194739385 C
   0.3020284539065180    0.4191489798935388    0.0956931549535266 C
   0.1825692736750190    0.8409689630041397    0.0919731126871145 C
   0.5564538720093986    0.0911397794589124    0.0998556322639805 C
   0.4292246264993893    0.1777404866615299    0.0994081680897575 C
   0.5551442689715359    0.9212458172125596    0.0999173182988207 C
   0.4257778212186155    0.6682866499030543    0.1017763808174807 C
   0.4293658682403493    0.8342139742295570    0.0995414942261379 C
   0.8049063848174214    0.0902626352095328    0.0937150290703271 C
   0.6815350438732253    0.1784558628407032    0.0975152739778570 C
   0.8055150902325742    0.9213411422257161    0.0940089976344068 C
   0.6852217071002368    0.3464763846954754    0.0984440275768567 C
   0.8107852995185734    0.5928982726577495    0.0930140583220885 C
   0.8106781457667929    0.4240001896042227    0.0925566655737685 C
   0.6823464249380500    0.8322513572895724    0.0979146899152399 C
   0.4243736884276387    0.3423666116114086    0.1010699270994713 N
   0.6879039667726217    0.6679655010911242    0.0986187828733105 N
   0.3066349119728558    0.9224837889319217    0.0951699778241824 N
   0.5563930103591767    0.5057253654090814    0.1069078718267362 Co
