Title
1.0
   9.8694509999999998    0.0000000000000000    0.0000000000000000
   0.0000000000000000    8.5490480000000009    0.0000000000000000
   0.0000000000000000    0.0000000000000000   20.0000000000000000
C N Ir
26 4 1
direct
   0.0562252079281554    0.0890854271516782    0.0937726440956421 C
   0.9320180810233633    0.1715004186739416    0.0940765356276192 C
   0.0562138525790388    0.9232526235714089    0.0937710855029967 C
   0.9340714320213751    0.3386583231072757    0.0940134564011499 C
   0.0562367621427274    0.5888963939656157    0.0935845616951258 C
   0.9340687905276582    0.6736598831886886    0.0939770082840921 C
   0.0562405623513328    0.4234292232494942    0.0935947549578017 C
   0.9320061729170478    0.8408206737856705    0.0940581341690327 C
   0.3058318835454671    0.0902979990990467    0.0948612378560364 C
   0.1804330991152608    0.1715097173647129    0.0941074367268984 C
   0.3058146153046740    0.9220132649602313    0.0948645563366222 C
   0.1784076168458215    0.3386702139701243    0.0940563132104023 C
   0.2994230955263079    0.5913294884645690    0.0950101242989171 C
   0.1783903422031277    0.6736643740023153    0.0940656135612388 C
   0.2994404946533910    0.4209685405171472    0.0949940712599768 C
   0.1804125223919439    0.8408235192542580    0.0941169388385658 C
   0.5562141691772593    0.0931268794853793    0.0958906950882265 C
   0.4288330194408364    0.1779788718268043    0.0956518414698503 C
   0.5562026132803489    0.9191576817998289    0.0958968506118727 C
   0.4288096885967355    0.8343229155378260    0.0956709087942756 C
   0.8066102639544348    0.0902930876181832    0.0948249155317411 C
   0.6836195021712257    0.1779770698712139    0.0956331609506720 C
   0.8065994664637770    0.9220112563716281    0.0948119023596089 C
   0.8130658976761528    0.5913267846651923    0.0948960984127346 C
   0.8130659124870847    0.4209734232694154    0.0949252245677872 C
   0.6836069489444915    0.8343262819164157    0.0956104396860175 C
   0.4206163808379971    0.3407683194694441    0.0959275267308243 N
   0.4205946890064177    0.6715478631771050    0.0959414093369522 N
   0.6919037678719968    0.3407714527391917    0.0958816393162735 N
   0.6919058189202916    0.6715491777709871    0.0958603034143235 N
   0.5562533300942640    0.5061638501552059    0.0966176109067631 Ir
