Title
1.0
   9.8694509999999998    0.0000000000000000    0.0000000000000000
   0.0000000000000000    8.5490480000000009    0.0000000000000000
   0.0000000000000000    0.0000000000000000   20.0000000000000000
C N Ag
28 3 1
direct
   0.0558323790476848    0.0893818244434418    0.0849822916862153 C
   0.9313495272661595    0.1732304047132868    0.0856633219219222 C
   0.0569240864508326    0.9219715852974107    0.0855202783444873 C
   0.9310620702406255    0.3405084128091777    0.0878241739781504 C
   0.0563538338985026    0.5912230512131759    0.0875563275057051 C
   0.0556756495741741    0.4241204257737759    0.0874963335500371 C
   0.9324283197502509    0.8381398069787634    0.0875011055307022 C
   0.3060082096395923    0.0887398418906847    0.0886630272162522 C
   0.1816685358080772    0.1724564898740071    0.0869780334980337 C
   0.1813124079409075    0.3397080634187092    0.0889590956632931 C
   0.3048605061823547    0.5878568320045774    0.0983835032637502 C
   0.1809669369131829    0.6742034906139732    0.0898726977051525 C
   0.3056266235410098    0.4213091416908148    0.0958727360174808 C
   0.1827024900943894    0.8406103304938339    0.0879214460520091 C
   0.5559293837903965    0.0886469150251933    0.0929648265661451 C
   0.5549025125127944    0.9234240608811135    0.0983126025397686 C
   0.4310960430720579    0.3349423582281565    0.0994957796062791 C
   0.4289161256986876    0.8391047228345004    0.1008253896396904 C
   0.8065615894146250    0.0886524921611371    0.0872965564681907 C
   0.6804073947399788    0.1720629474476337    0.0909214333776564 C
   0.8068495176389107    0.9223622868362494    0.0896069124559641 C
   0.6821754377865661    0.3395471460012719    0.0971901959962931 C
   0.8086961333245782    0.5922762729452841    0.0992624833813645 C
   0.8070464864605993    0.4239076136253391    0.0945352151260988 C
   0.6816902428474574    0.8411788142023363    0.0999154740979917 C
   0.4208347619294725    0.6797799704504078    0.1106012888853658 C
   0.5547401122235617    0.4086117783537140    0.1080803676039025 C
   0.6932836261625149    0.6795906583219530    0.1127957741227673 C
   0.3055302656386272    0.9248950397929659    0.0896235248803444 N
   0.4289500858695307    0.1683533773815070    0.0919447774753251 N
   0.9328180340988527    0.6733268954500985    0.0886376851099905 N
   0.5564396704430503    0.5861229488455073    0.1904703407336869 Ag
