Title
1.0
   9.8694509999999998    0.0000000000000000    0.0000000000000000
   0.0000000000000000    8.5490480000000009    0.0000000000000000
   0.0000000000000000    0.0000000000000000   20.0000000000000000
C N Ru
24 6 1
direct
   0.0551943502035368    0.0900530535951157    0.0883958594133186 C
   0.9304284376082574    0.1726826871034110    0.0879961951197447 C
   0.0572653120236657    0.9221887003702218    0.0890453285898506 C
   0.9336986027493780    0.3402093052799027    0.0876808128734998 C
   0.0565766882400446    0.5907788768718621    0.0876883151126933 C
   0.0569459991265822    0.4242017114738018    0.0870118508200083 C
   0.9323070335955491    0.8399016033327698    0.0901479561198382 C
   0.3067766061561940    0.0886095586970523    0.0952100100172393 C
   0.1805794521483048    0.1713953769370991    0.0909753771786102 C
   0.1806816580364890    0.3393109126713182    0.0906244471036906 C
   0.3018168029098337    0.5896874697234930    0.0982947088018672 C
   0.1797299197819550    0.6738032606269497    0.0906427906161560 C
   0.3029899196889936    0.4205529272894350    0.0989176059438562 C
   0.1817701273688770    0.8412632293877240    0.0910863084344622 C
   0.4291216057522788    0.1745954695775829    0.1025403904453809 C
   0.5544540366733202    0.9180116463444390    0.1030131882841775 C
   0.4274201713104509    0.8352881117745481    0.1025999126659345 C
   0.8037730761240317    0.0893265345831982    0.0914562359800355 C
   0.6808396466884383    0.1763242489839173    0.0976672627610074 C
   0.8061663700294789    0.9208493804540938    0.0929388120947127 C
   0.6873180472074714    0.3431339301426769    0.1031027738293769 C
   0.8134491260400976    0.5936724466091451    0.0965988596886286 C
   0.8124254666041215    0.4242748423321400    0.0938857065689962 C
   0.6825959320437337    0.8354338158875702    0.1011643748281480 C
   0.9338460538002206    0.6737758754225581    0.0897341523731282 N
   0.5548171052994412    0.0920204358718319    0.1021912967045592 N
   0.4226424781186305    0.3364877655763897    0.1106714511052584 N
   0.6945853641734522    0.6722188076477186    0.1083545593653325 N
   0.4188772750442001    0.6756058929760222    0.1094431896373360 N
   0.3054435731808982    0.9227073641351671    0.0945063075896503 N
   0.5585987622720821    0.5025097583208564    0.1273789599335385 Ru
