Title
1.0
   9.8694509999999998    0.0000000000000000    0.0000000000000000
   0.0000000000000000    8.5490480000000009    0.0000000000000000
   0.0000000000000000    0.0000000000000000   20.0000000000000000
C N Cr
27 3 1
direct
   0.0552896187954644    0.0886526774152580    0.0853161632816899 C
   0.9301134621317388    0.1725722178783490    0.0861736350959627 C
   0.0575472107974587    0.9227233244345681    0.0863227524965039 C
   0.9328800411973935    0.3398840571715619    0.0858529364811810 C
   0.0574778195219704    0.5898556790818803    0.0843789722597297 C
   0.9332724981234278    0.6737084827435950    0.0879198548427167 C
   0.0572824944656708    0.4229300741711178    0.0833540112058606 C
   0.9317858357038865    0.8405617187226224    0.0885790472653194 C
   0.3059330976137052    0.0867326644480101    0.0915728906931426 C
   0.1811272890636872    0.1697348211808661    0.0866966872832862 C
   0.1808990416509368    0.3374254753931790    0.0856729889476251 C
   0.3061678717748927    0.5869391607616441    0.0935532023770068 C
   0.1829106640987870    0.6717276676622344    0.0868191322815867 C
   0.3035477040633973    0.4171793862436317    0.0936737902256037 C
   0.1831274762054763    0.8392218999955300    0.0877710218645358 C
   0.4285028501549968    0.1750698150494526    0.0993946436281630 C
   0.5545009615336411    0.9251457720725089    0.1028262388025849 C
   0.4280675597145223    0.6709847931017516    0.1050080706859388 C
   0.4309151348739986    0.8378680902759353    0.1002935559633458 C
   0.8038756632892289    0.0906027012134731    0.0910435775822010 C
   0.6800122815349260    0.1793228855843517    0.0976026629189189 C
   0.8058414735483533    0.9233872645240802    0.0930818504357558 C
   0.6851240824227844    0.3436329363169003    0.1021985725940287 C
   0.8104150932782166    0.5922222105160111    0.0961773577102652 C
   0.6865251083078887    0.6721129647279471    0.1099539285008412 C
   0.8104772075889689    0.4226910299320318    0.0937078641033197 C
   0.6809922287906812    0.8391074770593316    0.1024927014974311 C
   0.5540910313102744    0.0941995300717048    0.1010084903614447 N
   0.4223822154536909    0.3340401070807507    0.1054530829137377 N
   0.3063879601237904    0.9217485725177055    0.0919150630360935 N
   0.5556620228661615    0.5088895426520356    0.1351502526642276 Cr
