Title
1.0
   8.5490480000000009    0.0000000000000000    0.0000000000000000
   0.0000000000000000    8.5490480000000009    0.0000000000000000
   0.0000000000000000    0.0000000000000000   20.0000000000000000
C N Zr
23 1 1
direct
   0.9107258606014246    0.2052336128100167    0.0940932612297304 C
   0.9101162192345483    0.5029660919360341    0.0959893438425919 C
   0.9126173913603928    0.8014529755926083    0.0942071986165276 C
   0.1971506779316418    0.0822008933385801    0.0943004632071018 C
   0.0747550979791108    0.2020224223626089    0.0941983417460652 C
   0.1582162253164383    0.6492521597971755    0.0962707261193133 C
   0.0773421920686968    0.5020162076691265    0.0960891228034661 C
   0.1580637187211403    0.3545339767922085    0.0965090875343500 C
   0.0778867672711791    0.7993464217249665    0.0940396043537154 C
   0.4921610563945077    0.0851700635811621    0.0957905249903744 C
   0.3444542703590026    0.1632690150992774    0.0963907342579048 C
   0.4915545614198066    0.9181855777122048    0.0956911245690788 C
   0.3450406326715180    0.8366648719370708    0.0962085462098476 C
   0.7882140766511760    0.0839407964263670    0.0939037608858333 C
   0.6383554108723205    0.1662112042071263    0.0958783224352476 C
   0.7892271851708386    0.9211151954010990    0.0939792991598608 C
   0.8314130819338671    0.6509077589090355    0.0961931457377703 C
   0.8292805984188510    0.3553405017391519    0.0960925679756598 C
   0.6383679736530995    0.8370265690059757    0.0959146138918539 C
   0.3220210213958489    0.3312712171266199    0.0995254042641144 C
   0.3229436623583025    0.6728570269271232    0.0989391614721065 C
   0.6630695379283018    0.3317699053156971    0.0990272620566105 C
   0.6638921422618371    0.6729259934909758    0.0988706903714302 C
   0.1972562021856696    0.9174256300505791    0.0939203013227102 N
   0.4912864358404652    0.5016839110472153    0.1416823909467152 Zr
