Title
1.0
   4.9440799999999996    0.0000000000000000    0.0000000000000000
   0.0000000000000000    8.5647549999999999    0.0000000000000000
   0.0000000000000000    0.0000000000000000   20.0000000000000000
C N Hf
13 2 1
direct
  -0.0018448744254634    0.2882602613470205    0.0921270326089610 C
   0.2500000000000000    0.0423722154896878    0.0852542778573336 C
   0.0013585477128417    0.7970132665064880    0.0980088287352589 C
  -0.0005856247439317    0.9601844743286845    0.0850590882563326 C
   0.7500000000000000    0.2057227023306031    0.0816481174608010 C
   0.5018448744254633    0.2882602613470205    0.0921270326089610 C
   0.7500000000000000    0.0408729128684993    0.0794932924397789 C
   0.7500000000000000    0.7069118933456238    0.1045086778739177 C
   0.4986414522871582    0.7970132665064880    0.0980088287352589 C
   0.7500000000000000    0.5363777310059485    0.1093031620400953 C
   0.5005856247439318    0.9601844743286845    0.0850590882563326 C
   0.5055738107552735    0.4452518768760590    0.1116480678112365 C
  -0.0055738107552736    0.4452518768760590    0.1116480678112365 C
   0.2500000000000000    0.7286932443599021    0.1105957052257591 N
   0.2500000000000000    0.2063079723501118    0.0888427553494277 N
   0.2500000000000000    0.5513215701331194    0.1791799769293181 Hf
