Title
1.0
   4.9440799999999996    0.0000000000000000    0.0000000000000000
   0.0000000000000000    8.5647549999999999    0.0000000000000000
   0.0000000000000000    0.0000000000000000   20.0000000000000000
C N Cu
11 4 1
direct
  -0.0061357007934819    0.2932585694179212    0.0900293537151765 C
   0.2500000000000000    0.0448269026785242    0.0898891287433578 C
   0.0048528296373425    0.7960113207436786    0.1048509617715646 C
   0.0009680035706606    0.9610840770425907    0.0910604523575638 C
   0.7500000000000000    0.2050165671476551    0.0848908193768636 C
   0.5061357007934819    0.2932585694179212    0.0900293537151765 C
   0.7500000000000000    0.0401876570096945    0.0848938307110116 C
   0.7500000000000000    0.7048501236958522    0.1057553139156044 C
   0.4951471703626575    0.7960113207436786    0.1048509617715646 C
   0.7500000000000000    0.5303009726029450    0.1020545353014878 C
   0.4990319964293392    0.9610840770425907    0.0910604523575638 C
   0.5120511661973208    0.4487896933969542    0.0996598611361520 N
  -0.0120511661973211    0.4487896933969542    0.0996598611361520 N
   0.2500000000000000    0.7303659623553652    0.1199634458993501 N
   0.2500000000000000    0.2137056964679960    0.0873089465594385 N
   0.2500000000000000    0.5324587968396780    0.1665547215319821 Cu
