Title
1.0
   4.9440799999999996    0.0000000000000000    0.0000000000000000
   0.0000000000000000    8.5647549999999999    0.0000000000000000
   0.0000000000000000    0.0000000000000000   20.0000000000000000
C N Hf
12 3 1
direct
   0.0074045797587821    0.3001103270958119    0.1048055583925172 C
   0.2595418962680024    0.0471911558224604    0.0928446530584513 C
   0.0122982870428661    0.7976613292959095    0.0948902727066991 C
   0.0093772415756863    0.9626415519756406    0.0915352226279501 C
   0.7585322139027783    0.2065269586135844    0.0990490034408185 C
   0.5114472033333305    0.2877954774418799    0.1041124562772479 C
   0.7590522200079526    0.0440207394814250    0.0922720693591970 C
   0.7589449882564314    0.7062149548678035    0.0966905918084718 C
   0.5048810262322965    0.7947948309944678    0.0980393156470914 C
   0.7492277645774125    0.5332372821339886    0.0946428410710900 C
   0.5081942585293119    0.9621744131052355    0.0932516797246359 C
   0.5199033608286262    0.4506253951828362    0.1211819046658483 C
  -0.0186689872954564    0.4521587422551825    0.0690527366703732 N
   0.2581456487144968    0.7213784825776626    0.1034945366879944 N
   0.2626914032213382    0.2098514172214049    0.0954148450650222 N
   0.1390268950461440    0.5236169419347061    0.1612343127966014 Hf
