Title
1.0
   9.8694509999999998    0.0000000000000000    0.0000000000000000
   0.0000000000000000    8.5490480000000009    0.0000000000000000
   0.0000000000000000    0.0000000000000000   20.0000000000000000
C N Y
25 6 1
direct
   0.0561122862317695    0.0911115007677001    0.0883193199600403 C
   0.9316029450793147    0.1745087175512547    0.0894881613356475 C
   0.0576506485513229    0.9229999000643172    0.0878104663816203 C
   0.9307253605914746    0.3414717515681495    0.0919228797319949 C
   0.0567271041277764    0.5913344287172412    0.0894397007834743 C
   0.0564229307323400    0.4234961470340567    0.0908469074586720 C
   0.9328815204830461    0.8400929037346176    0.0901023532253857 C
   0.3064564125714602    0.0890025254859291    0.0894063114010001 C
   0.1825518228797516    0.1736915513007510    0.0896284009684449 C
   0.1826143920757261    0.3406077602767397    0.0914289890307214 C
   0.3053825137299362    0.5916749894427888    0.0937075190736329 C
   0.1799745223929239    0.6742333711438510    0.0889087049345733 C
   0.3110163116388099    0.4224009157322065    0.0949349386947476 C
   0.1817233010759573    0.8419272455599945    0.0876228406398164 C
   0.5564189568538243    0.0855770585980664    0.0937890175735656 C
   0.5555425124770895    0.9175605858193467    0.0966381846090783 C
   0.4330007034793799    0.3323868615450353    0.0976786513549450 C
   0.4270320226593618    0.8385404230536301    0.0942076185065933 C
   0.8068670735971567    0.0888210726703023    0.0896732298304841 C
   0.6805395618980028    0.1694980111817067    0.0920898140077598 C
   0.8087914903966736    0.9226629023587852    0.0913601486576937 C
   0.6795396565468075    0.3365713150367251    0.0979207145575179 C
   0.8092489638871383    0.5942055339898454    0.0992427606269830 C
   0.8035714216576514    0.4257615025914713    0.0974155529547569 C
   0.6845197649838627    0.8385049293420438    0.0985001760951420 C
   0.4203659838492857    0.6816377696455655    0.0995262940140931 N
   0.5547668271298255    0.4041019223085692    0.1082757649313908 N
   0.6954437328648105    0.6794181285787270    0.1108513751250269 N
   0.3060464453973373    0.9255418352881603    0.0882558049035474 N
   0.4304426604112001    0.1664744569501251    0.0922606539822415 N
   0.9327352778459680    0.6722415202824424    0.0907747069196780 N
   0.5429238719030225    0.5921864623798571    0.1836470377297471 Y
