Title
1.0
   9.8694509999999998    0.0000000000000000    0.0000000000000000
   0.0000000000000000    8.5490480000000009    0.0000000000000000
   0.0000000000000000    0.0000000000000000   20.0000000000000000
C N Pd
30 1 1
direct
   0.0558417454389769    0.0900036420040690    0.0843784966514255 C
   0.9316615535954809    0.1721295223029633    0.0860185025384196 C
   0.0569244873714897    0.9233782662311426    0.0842602280439096 C
   0.9319028369316101    0.3394554132785353    0.0882269520814103 C
   0.0569084558143075    0.5898459020691096    0.0851536981989635 C
   0.9323792754547723    0.6726653485451501    0.0872901947010984 C
   0.0570925445629635    0.4224761167289958    0.0864364200312722 C
   0.9317738074738275    0.8390553884039134    0.0860989340433370 C
   0.3055401365036752    0.0888112147042604    0.0888728488437833 C
   0.1812925369280260    0.1723219467584909    0.0862671799969251 C
   0.1821677338480255    0.3391317779378254    0.0884406639406973 C
   0.3041669868133790    0.5893751085720211    0.0987765273966234 C
   0.1813518527660679    0.6745414774606537    0.0874562481979577 C
   0.3055244525146266    0.4230640422824996    0.0968027768908965 C
   0.1814173882515240    0.8406695577268507    0.0866136970596015 C
   0.5562241737049052    0.0883581671927750    0.0941906910502217 C
   0.4304463142521195    0.1706877825418491    0.0935409661240519 C
   0.5544054531304001    0.9231606648104167    0.0976255471200913 C
   0.4301835539653550    0.3373699829664999    0.1008861822963672 C
   0.4167592419472139    0.6829447384589454    0.1144429662571242 C
   0.5572862086877824    0.4071339254922378    0.1121995589623549 C
   0.4273725416227265    0.8424538749670205    0.1009207309583342 C
   0.8065098012044134    0.0884005851249324    0.0878610498634012 C
   0.6816598280127261    0.1705421844393819    0.0928624142545380 C
   0.8064152696028966    0.9226668776100923    0.0889125020242218 C
   0.6829552866271658    0.3367674659018575    0.1000670772557104 C
   0.8084189778365253    0.5884415123878112    0.0970214115649296 C
   0.6922786724387571    0.6783426980932533    0.1093309824735749 C
   0.8080694653857073    0.4213537717526306    0.0955019308652758 C
   0.6808573672892382    0.8398085224236719    0.0982854427251670 C
   0.3049939334672248    0.9252711567535359    0.0897929882687941 N
   0.5588571165560973    0.5896173640766170    0.1711391893195551 Pd
