Title
1.0
   4.9440799999999996    0.0000000000000000    0.0000000000000000
   0.0000000000000000    8.5647549999999999    0.0000000000000000
   0.0000000000000000    0.0000000000000000   20.0000000000000000
C N Ag
14 1 1
direct
   0.2500000000000000    0.2091622638598503    0.0984579056439181 C
  -0.0048449274654289    0.2880699738832709    0.1046141819888865 C
   0.2500000000000000    0.0450752043828471    0.0865622371993711 C
   0.0077092774600388    0.7946854488552810    0.0859217840002704 C
   0.0014733919498357    0.9607771178377124    0.0828955209015358 C
   0.7500000000000000    0.2026117121481824    0.0957651248696582 C
   0.5048449274654291    0.2880699738832709    0.1046141819888865 C
   0.7500000000000000    0.0405428539741449    0.0843974563836295 C
   0.7500000000000000    0.7116011871711436    0.0912511090816856 C
   0.4922907225399609    0.7946854488552810    0.0859217840002704 C
   0.7500000000000000    0.5481329430807649    0.1046689686514521 C
   0.4985266080501641    0.9607771178377124    0.0828955209015358 C
   0.5294444202743263    0.4482304248139383    0.1171726433662876 C
  -0.0294444202743262    0.4482304248139383    0.1171726433662876 C
   0.2500000000000000    0.7176659953635632    0.0893274198782145 N
   0.2500000000000000    0.5416819092390983    0.1908735177781177 Ag
