Title
1.0
   4.9440799999999996    0.0000000000000000    0.0000000000000000
   0.0000000000000000    8.5647549999999999    0.0000000000000000
   0.0000000000000000    0.0000000000000000   20.0000000000000000
C N Rh
13 2 1
direct
   0.2464121965848117    0.2097817790950317    0.0931662011385149 C
  -0.0079675060454232    0.2919998063084072    0.0928434456831239 C
   0.2497262586137025    0.0441752926114664    0.0890889701852227 C
   0.0074105121404308    0.7947242432415668    0.0970995779224320 C
   0.0009544021799498    0.9597491712060563    0.0879762313275601 C
   0.7464758380718245    0.2073341733285443    0.0893065870823965 C
   0.4991277620810667    0.2903667967797246    0.0993148328836040 C
   0.7503473745957028    0.0412786938919458    0.0858795400266009 C
   0.7557552390524351    0.7074637051338734    0.1013088831720522 C
   0.5017828281456457    0.7949144804054805    0.0984860162533417 C
   0.7522504208859074    0.5363989778468821    0.1055420278008787 C
   0.5012439223385514    0.9599809394211363    0.0894593010681919 C
   0.5184601950716085    0.4486281560196389    0.1195262934103777 C
  -0.0121809831558120    0.4513283011429023    0.0959935707239020 N
   0.2555145861288864    0.7237630732663812    0.1074068987845238 N
   0.2346869533107117    0.5381124103009617    0.1701136225372845 Rh
