Title
1.0
   8.5490480000000009    0.0000000000000000    0.0000000000000000
   0.0000000000000000    8.5490480000000009    0.0000000000000000
   0.0000000000000000    0.0000000000000000   20.0000000000000000
C N Ag
20 4 1
direct
   0.9104177219186174    0.2042388371069462    0.0954725061936966 C
   0.9071537218608708    0.5018137413758721    0.0953129621043141 C
   0.9104337675478602    0.7993544566651916    0.0954842134690994 C
   0.1954622765641188    0.0843674312655593    0.0955004835033329 C
   0.0756065903999847    0.2042164638344981    0.0954818989865297 C
   0.1954723260407977    0.9191834140915239    0.0955045510986373 C
   0.1575350055122848    0.6509536837940758    0.0953432641606620 C
   0.0788991092844717    0.5017862100426100    0.0953295386735081 C
   0.1575199199265885    0.3526018129522803    0.0953317857422607 C
   0.0756217393347554    0.7993361177547221    0.0954916713342885 C
   0.4929838815575320    0.0876668834989648    0.0953542232100316 C
   0.3438357010936904    0.1663015167560106    0.0953543259991025 C
   0.4929884638733597    0.9159272240122343    0.0953610659407157 C
   0.3438546448051300    0.8372624601263460    0.0953604518121820 C
   0.7905576886524663    0.0843951655229723    0.0954826145594136 C
   0.6421485958573475    0.1663306905507073    0.0953239221574675 C
   0.7905683352596267    0.9192123142621600    0.0954882106681787 C
   0.8285161774771168    0.6509836274594579    0.0953213679097810 C
   0.8285109238625769    0.3526385409886941    0.0952994943393073 C
   0.6421619582565878    0.8372840709491528    0.0953324704822167 C
   0.3168504042593804    0.3255946896758153    0.0951810814507632 N
   0.3168631694943929    0.6779494629672718    0.0951880579713220 N
   0.6692018858122911    0.3256248550758151    0.0951438659115075 N
   0.6692095545268116    0.6779765870355406    0.0951609152446922 N
   0.4930384368213328    0.5017897422355913    0.0951000570769669 Ag
