Title
1.0
   4.9440799999999996    0.0000000000000000    0.0000000000000000
   0.0000000000000000    8.5647549999999999    0.0000000000000000
   0.0000000000000000    0.0000000000000000   20.0000000000000000
C N Co
12 3 1
direct
   0.2500000000000000    0.2116164568527331    0.0916540213594627 C
  -0.0057389310784216    0.2915800474112288    0.0940650823485789 C
   0.2500000000000000    0.0446323352654097    0.0882372883284577 C
   0.0030225479094333    0.7961637544356888    0.1019684183203812 C
  -0.0002858914382870    0.9597513865572115    0.0883926764997362 C
   0.7500000000000000    0.2067968491276654    0.0854624956086973 C
   0.5057389310784216    0.2915800474112288    0.0940650823485789 C
   0.7500000000000000    0.0410708518125677    0.0834253980600590 C
   0.7500000000000000    0.7051380195459565    0.1053202849249754 C
   0.4969774520905667    0.7961637544356888    0.1019684183203812 C
   0.7500000000000000    0.5320738401533486    0.1066319131015720 C
   0.5002858914382865    0.9597513865572115    0.0883926764997362 C
   0.5167914822335430    0.4476652754731416    0.1082997928732720 N
  -0.0167914822335430    0.4476652754731416    0.1082997928732720 N
   0.2500000000000000    0.7303670036556918    0.1167241665451822 N
   0.2500000000000000    0.5379837158320856    0.1596044919876646 Co
