Title
1.0
   4.9440799999999996    0.0000000000000000    0.0000000000000000
   0.0000000000000000    8.5647549999999999    0.0000000000000000
   0.0000000000000000    0.0000000000000000   20.0000000000000000
C N Au
13 2 1
direct
  -0.0013912442909943    0.2907976979030691    0.1021226431674928 C
   0.2500000000000000    0.0463614766656620    0.0897860445935446 C
   0.0085578734839071    0.7955613439403639    0.0848718475975723 C
   0.0010885201742978    0.9631828881589186    0.0859488722527376 C
   0.7500000000000000    0.2070636816299530    0.0928325563057948 C
   0.5013912442909939    0.2907976979030691    0.1021226431674928 C
   0.7500000000000000    0.0437899981301876    0.0867311698038699 C
   0.7500000000000000    0.7095409961788596    0.0902229500519156 C
   0.4914421265160929    0.7955613439403639    0.0848718475975723 C
   0.7500000000000000    0.5440530355019703    0.1041953354474717 C
   0.4989114798257022    0.9631828881589186    0.0859488722527376 C
   0.5115698838822741    0.4505601944916399    0.1140923809369888 C
  -0.0115698838822743    0.4505601944916399    0.1140923809369888 C
   0.2500000000000000    0.7195674079804836    0.0829714938692887 N
   0.2500000000000000    0.2078864488046161    0.0992198452500884 N
   0.2500000000000000    0.5215327061202852    0.1924811167684528 Au
