Title
1.0
   9.8694509999999998    0.0000000000000000    0.0000000000000000
   0.0000000000000000    8.5490480000000009    0.0000000000000000
   0.0000000000000000    0.0000000000000000   20.0000000000000000
C N Mo
25 5 1
direct
   0.0550756974259207    0.0894452338120580    0.0855133672872884 C
   0.9303260340703656    0.1720053903582305    0.0872050115185643 C
   0.0570439106182294    0.9210736351500330    0.0864252894611909 C
   0.9332605202248244    0.3394397041394575    0.0874838700061280 C
   0.0569198079577819    0.5905454371878390    0.0840466725104671 C
   0.0567643302436656    0.4238388092182487    0.0830887654606663 C
   0.9314542079966307    0.8386398073535831    0.0886199608017449 C
   0.3070234333950929    0.0885273914959041    0.0902511140807560 C
   0.1807031861767460    0.1716186656981473    0.0857752194060706 C
   0.1811247676786169    0.3392801997097512    0.0836425271219517 C
   0.3047480669737624    0.5895565303551565    0.0893848538419751 C
   0.1808768638620971    0.6732832659841037    0.0847696283750995 C
   0.3054664419818041    0.4209708210602044    0.0890458929361943 C
   0.1815156249145831    0.8401738063791701    0.0870756491724117 C
   0.4284693645824622    0.1747690174105746    0.0966212136661744 C
   0.5530893233875180    0.9214838213261585    0.1007279605304750 C
   0.4288177035051264    0.8370571025860079    0.0980096694199080 C
   0.8036585029264418    0.0895260587004211    0.0913360858672999 C
   0.6802136358412351    0.1765512137773307    0.0994005429027544 C
   0.8050671497587897    0.9205770739193079    0.0921526081788269 C
   0.6879009806439438    0.3420247963380029    0.1101811447133481 C
   0.8136885292228841    0.5917391738455974    0.1001900834148832 C
   0.6910276831151169    0.6723759230874714    0.1136859296884212 C
   0.8130349568901080    0.4227126039490560    0.0983129344424352 C
   0.6805223159526725    0.8377519058655287    0.1016134985235022 C
   0.9338452295010560    0.6725626006851944    0.0890827600077573 N
   0.5542405496921178    0.0937014151386447    0.0998576577562435 N
   0.4242723820534702    0.3364160750958511    0.1001175050869515 N
   0.4228191507566145    0.6751805723714970    0.1023001593610663 N
   0.3056565462372434    0.9216925257288793    0.0904166557824024 N
   0.5545081024130946    0.5063544222725951    0.1446307686770897 Mo
