Title
1.0
   9.8694509999999998    0.0000000000000000    0.0000000000000000
   0.0000000000000000    8.5490480000000009    0.0000000000000000
   0.0000000000000000    0.0000000000000000   20.0000000000000000
C N Zn
25 5 1
direct
   0.0542960550607691    0.0888558332978780    0.0862378420312319 C
   0.9304739955362706    0.1742640346898307    0.0898835613658061 C
   0.0569249435709342    0.9221621472600201    0.0867649820569614 C
   0.9322015763097758    0.3417479189507890    0.0900053274211037 C
   0.0560691114790191    0.5907584363103453    0.0840139681170973 C
   0.0554182047053079    0.4243390112633525    0.0832563510375694 C
   0.9323669499306002    0.8407743664534385    0.0890015915900658 C
   0.3052917730957737    0.0849834619785604    0.0899852962904347 C
   0.1803474087638837    0.1697147869078978    0.0847539033804464 C
   0.1790927531850628    0.3368852400207820    0.0823184710406634 C
   0.3037552705387849    0.5859356023775354    0.0911661922991549 C
   0.1804476969428628    0.6727303036428611    0.0848600583888631 C
   0.3035178706361082    0.4152637177037778    0.0859296160697532 C
   0.1826956345035969    0.8386528428773924    0.0874081893205535 C
   0.4278301150831303    0.1729918036104633    0.0938966275175624 C
   0.5559856626840644    0.9207507822271080    0.1035135563091633 C
   0.4208922418625454    0.6699166568006204    0.1092961744336129 C
   0.4291923576028845    0.8341415550147403    0.1035392896593080 C
   0.8047577640366481    0.0918371604841098    0.0946869699574125 C
   0.6812839277928207    0.1800992826249542    0.1049676500752182 C
   0.8074289330280446    0.9249599177610908    0.0936921412321045 C
   0.6890008591309974    0.3430170372987653    0.1168051442577557 C
   0.8118480851377253    0.5970506459381253    0.0986271594948211 C
   0.8110750447168521    0.4246314510018020    0.1022979006497169 C
   0.6835169204125150    0.8394953553004940    0.1005878238248942 C
   0.9341407492027709    0.6743128536078841    0.0891287925893709 N
   0.5550982347851742    0.0933489000110503    0.1023375290548549 N
   0.4212445647692341    0.3302653099947740    0.0892219684556106 N
   0.6967234383563197    0.6783858885337569    0.1035345423644191 N
   0.3052546882533758    0.9205397119669391    0.0919676154939068 N
   0.5549621688861488    0.5080629840888889    0.1272787642205974 Zn
