Title
1.0
   8.5490480000000009    0.0000000000000000    0.0000000000000000
   0.0000000000000000    8.5490480000000009    0.0000000000000000
   0.0000000000000000    0.0000000000000000   20.0000000000000000
C Nb
24 1
direct
   0.9107950021294210    0.2066188186282548    0.0975745972225808 C
   0.9088388734362205    0.5017890246983406    0.0973046583632921 C
   0.9108271911596865    0.7969905182748160    0.0976095978975549 C
   0.1978911202364584    0.0839795427699188    0.0976320393371704 C
   0.0752512618892526    0.2065716939188287    0.0976210144447547 C
   0.1978735033205963    0.9195358944871997    0.0976892806605004 C
   0.1578447823052299    0.6472860163424413    0.0970110469350546 C
   0.0771724521447661    0.5017446693643502    0.0973135748685473 C
   0.1578830024023600    0.3562393482618132    0.0970131038141071 C
   0.0752550662904398    0.7969821546214645    0.0976780307187036 C
   0.4930547865764168    0.0859365860405300    0.0973550687734294 C
   0.3475315290173098    0.1666118855546988    0.0969798400910355 C
   0.4930362790797713    0.9176523210592783    0.0973726485480731 C
   0.3475250187897937    0.8369360209463066    0.0970360544331648 C
   0.7881819615780891    0.0840563662608516    0.0976191787199765 C
   0.6385088463008679    0.1667293775620857    0.0970295954471029 C
   0.7881882614234818    0.9195810635380934    0.0976546427472837 C
   0.8281774451573771    0.6473211470849725    0.0969476484872229 C
   0.8281082531457690    0.3563076835140824    0.0969774638653369 C
   0.6385283124462228    0.8369147965662201    0.0970599115976696 C
   0.3253970380966115    0.3340935880682328    0.0949993346380258 C
   0.3253457718084276    0.6694419020004081    0.0949974184965698 C
   0.6605877726952701    0.3341994206148075    0.0950347050429704 C
   0.6606583911165341    0.6694278199279995    0.0950068165603338 C
   0.4929500774536186    0.5018423398940184    0.0571877282895171 Nb
