Title
1.0
   4.9440799999999996    0.0000000000000000    0.0000000000000000
   0.0000000000000000    8.5647549999999999    0.0000000000000000
   0.0000000000000000    0.0000000000000000   20.0000000000000000
C N Au
14 1 1
direct
   0.2500000000000000    0.2101423431446832    0.1008766863711810 C
  -0.0049014771237227    0.2890125920615868    0.1070830643630291 C
   0.2500000000000000    0.0461061003023759    0.0872771336861322 C
   0.0086324949079623    0.7951615532506715    0.0822981909502857 C
   0.0014152764364406    0.9619544988339583    0.0825971577658422 C
   0.7500000000000000    0.2042061663902164    0.0972846563545694 C
   0.5049014771237228    0.2890125920615868    0.1070830643630291 C
   0.7500000000000000    0.0421096572435020    0.0851642002892438 C
   0.7500000000000000    0.7109657519014780    0.0881452528581648 C
   0.4913675050920378    0.7951615532506715    0.0822981909502857 C
   0.7500000000000000    0.5497544881802300    0.1050719393115544 C
   0.4985847235635593    0.9619544988339583    0.0825971577658422 C
   0.5297994814187008    0.4501616822398573    0.1202441019572362 C
  -0.0297994814187008    0.4501616822398573    0.1202441019572362 C
   0.2500000000000000    0.7178839766791499    0.0825664089506928 N
   0.2500000000000000    0.5262508633862167    0.1916806921056830 Au
