Title
1.0
   9.8694509999999998    0.0000000000000000    0.0000000000000000
   0.0000000000000000    8.5490480000000009    0.0000000000000000
   0.0000000000000000    0.0000000000000000   20.0000000000000000
C N Pd
30 1 1
direct
   0.0562327043627154    0.0893791660282488    0.0839870272673010 C
   0.9310894619428925    0.1727845410391312    0.0864194084733662 C
   0.0562326994220584    0.9226245967446521    0.0833851400161423 C
   0.9304377385266879    0.3398802713237971    0.0907752351890384 C
   0.0562347401830745    0.5889022177133240    0.0885858007652724 C
   0.9308207788372101    0.6724173497353156    0.0892917990615469 C
   0.0562333115703105    0.4226343525418516    0.0895933777967646 C
   0.9306162162274049    0.8388979107602920    0.0854967282741011 C
   0.3055062669667087    0.0891676214257278    0.0863094640593099 C
   0.1813836910378462    0.1727939165156310    0.0864383042291374 C
   0.3065275324820355    0.9237230213482323    0.0860375171101162 C
   0.1820279908772225    0.3398894158238008    0.0907875534062759 C
   0.3068308204472991    0.5898799119734955    0.0988282604403539 C
   0.1816454733361052    0.6724323005712836    0.0893509361588322 C
   0.3064410043364884    0.4220213983015714    0.0990358008409421 C
   0.1818314682372516    0.8389192549119204    0.0855609514028539 C
   0.5562388352253760    0.0878653512203847    0.0925067915496231 C
   0.4312911504098078    0.1696654149527246    0.0925146784844227 C
   0.4312354196751628    0.3347117005493747    0.1037089506286883 C
   0.4256914192164662    0.6824462251754624    0.1079645826600903 C
   0.5562514979947235    0.4018955753111818    0.1199639169069653 C
   0.4318464003907796    0.8417749277960155    0.0946075085280976 C
   0.8069697324892904    0.0891540623170295    0.0862809806955489 C
   0.6811981082012563    0.1696550802142114    0.0924932946590634 C
   0.8059319591689490    0.9237123508215198    0.0859905547071898 C
   0.6812537532053587    0.3346978092174459    0.1036838065476929 C
   0.8056360424293183    0.5898705021388119    0.0987468735540622 C
   0.6867985431197853    0.6824625740032292    0.1078865505151910 C
   0.8060333645071264    0.4220179427113823    0.0989995065401609 C
   0.6805973130886193    0.8417955682223196    0.0945529561898366 C
   0.5562213983441634    0.9239836258902759    0.0928305240257867 N
   0.5563521637405129    0.5981900427003622    0.1730602193162600 Pd
