Title
1.0
   4.9440799999999996    0.0000000000000000    0.0000000000000000
   0.0000000000000000    8.5647549999999999    0.0000000000000000
   0.0000000000000000    0.0000000000000000   20.0000000000000000
C N Mn
13 2 1
direct
  -0.0019951620160315    0.2884341755218614    0.0903785673078258 C
   0.2500000000000000    0.0433730860114565    0.0849163077964987 C
   0.0032914579916091    0.7991819158864120    0.1028267755503373 C
  -0.0001700677290129    0.9608909298526110    0.0860653660155673 C
   0.7500000000000000    0.2056503239813777    0.0803406511423545 C
   0.5019951620160318    0.2884341755218614    0.0903785673078258 C
   0.7500000000000000    0.0406353253282561    0.0791339272568014 C
   0.7500000000000000    0.7098031616789523    0.1080183377635476 C
   0.4967085420083907    0.7991819158864120    0.1028267755503373 C
   0.7500000000000000    0.5384761723960193    0.1106248425154547 C
   0.5001700677290130    0.9608909298526110    0.0860653660155673 C
   0.5070608224988488    0.4444649319137461    0.1104590802127274 C
  -0.0070608224988488    0.4444649319137461    0.1104590802127274 C
   0.2500000000000000    0.7334525934520962    0.1179075666435129 N
   0.2500000000000000    0.2070070630064466    0.0859156048829901 N
   0.2500000000000000    0.5356583677961323    0.1661951838259342 Mn
