Title
1.0
   4.9440799999999996    0.0000000000000000    0.0000000000000000
   0.0000000000000000   17.1295089999999988    0.0000000000000000
   0.0000000000000000    0.0000000000000000   20.0000000000000000
C Sc
30 1
direct
   0.0001191719520312    0.1035985279470908    0.2889578422287860 C
   0.2502784951524616    0.1456786977074036    0.2923393890669936 C
   0.2502764101596922    0.2277767830836222    0.3006370131141918 C
  -0.0012050186069403    0.2698090152832234    0.3047484195672142 C
  -0.0011132310730099    0.6052159609679296    0.3063204172216793 C
   0.2503504318259955    0.7292851102621456    0.2937075216106890 C
   0.0002705578130950    0.8542114745892680    0.2858343402744585 C
   0.2503756072505366    0.8960130262801335    0.2848123594539861 C
   0.2503261584924905    0.9788519594708049    0.2845125987445951 C
   0.0001915435692287    0.7713193860324196    0.2900734859303317 C
   0.5004557389150157    0.1036054129532197    0.2889435267316037 C
   0.7502890146040119    0.1448768795560778    0.2914631518266665 C
   0.7502838583763600    0.2276209995433006    0.2990157853695686 C
   0.5004188626516689    0.0206689831507443    0.2852212927339728 C
   0.7502575639533761    0.3937666403178777    0.3145998008725996 C
   0.7503027928093635    0.4812295582389752    0.3152029804689880 C
   0.5017461122265500    0.2698176493529343    0.3046428824753510 C
   0.5017561900195223    0.6052018671825770    0.3062220420304326 C
   0.7503394103029135    0.7300728394219085    0.2927811544230612 C
   0.5004767120790249    0.8542162290515984    0.2858359011411550 C
   0.7503767547852251    0.8957873407729982    0.2845252215430505 C
   0.7503329490021616    0.9790781487466221    0.2842294610564124 C
   0.5005243806211397    0.7713162770926730    0.2900519922658535 C
   0.7503206122267135    0.6473704013867009    0.3005722067859278 C
   0.2503287695010193    0.6472410023406070    0.3023198522166973 C
   0.0002117036152035    0.0206667299536674    0.2852294315915977 C
   0.5055699893151514    0.5236985077915507    0.3152324536887549 C
   0.9950711762371752    0.5237217584356371    0.3154265806074357 C
   0.5056941122314433    0.3512526295040591    0.3140435935788322 C
  -0.0052032592531235    0.3512249640317798    0.3142798486083812 C
   0.2505834292445071    0.4371472395504462    0.3632774527706838 Sc
