Title
1.0
   9.8694509999999998    0.0000000000000000    0.0000000000000000
   0.0000000000000000    8.5490480000000009    0.0000000000000000
   0.0000000000000000    0.0000000000000000   20.0000000000000000
C N Mn
28 2 1
direct
   0.0562316481748548    0.0891202462806824    0.0861187458464142 C
   0.9310642825163297    0.1719369758109546    0.0884352172374574 C
   0.0562299488351388    0.9232093735986985    0.0861056333640383 C
   0.9338147449491757    0.3382677414327298    0.0875483427782037 C
   0.0571651230707827    0.5893394019106493    0.0833318149036409 C
   0.9338021421187852    0.6740879748008594    0.0874997910591416 C
   0.0571650839337291    0.4230193015678711    0.0833623901144301 C
   0.9310591422153195    0.8404149572518446    0.0884026296309103 C
   0.3057912265575021    0.0900795623846503    0.0927729899227076 C
   0.1807355083893878    0.1720257956110943    0.0873875432299249 C
   0.3057979031742010    0.9221889108046177    0.0927557682570379 C
   0.1805387916159827    0.3394550261313888    0.0857700403579820 C
   0.3037789251359609    0.5913222593330186    0.0922086382785654 C
   0.1805533789767870    0.6728654996493962    0.0857377942046357 C
   0.3037773700993837    0.4209469181516916    0.0922218879017545 C
   0.1807390910723655    0.8402874987727117    0.0873561030875354 C
   0.5541560274115397    0.0909326167767397    0.1036068142287025 C
   0.4282798662194998    0.1775105012854006    0.0999627240971494 C
   0.5541421577132586    0.9213575501565788    0.1036101273265973 C
   0.4282936911091376    0.8347602068345166    0.0999459038147277 C
   0.8056795550337911    0.0899891431371812    0.0944253329039013 C
   0.6818262265453652    0.1764273142087578    0.1024499476084487 C
   0.8056709076066852    0.9223109774442936    0.0944220299968418 C
   0.6892569910075584    0.3416909806570789    0.1069364173261535 C
   0.8123847890344228    0.5910196967064405    0.0965949123062789 C
   0.6892543305415170    0.6706562047398108    0.1069352716918065 C
   0.8123908103233987    0.4213172857078378    0.0966096678227805 C
   0.6818149292195087    0.8358792093775216    0.1024510301839397 C
   0.4231133939984335    0.3398525630787790    0.1017051449349066 N
   0.4231139375267812    0.6724301877694144    0.1016917084911267 N
   0.5555130758734268    0.5061731186268001    0.1226026370923007 Mn
