Title
1.0
   9.8694509999999998    0.0000000000000000    0.0000000000000000
   0.0000000000000000    8.5490480000000009    0.0000000000000000
   0.0000000000000000    0.0000000000000000   20.0000000000000000
C N Co
25 5 1
direct
   0.0551557628878480    0.0881124879302645    0.0944230491798843 C
   0.9305829863891105    0.1708524105020330    0.0948754771041745 C
   0.0570656834451844    0.9216098169107340    0.0943133004109909 C
   0.9342167166789658    0.3382156760925359    0.0948500833644965 C
   0.0571369133088106    0.5901612677724675    0.0942272919037260 C
   0.0573543434845520    0.4238304453595185    0.0943357282635466 C
   0.9313872699867158    0.8383666678205796    0.0947259936639206 C
   0.3067496511099193    0.0890090056293533    0.0943029444159434 C
   0.1812666257836341    0.1712919223165034    0.0942572259807060 C
   0.1811810595911899    0.3391951917178415    0.0941618421548137 C
   0.3039811689118765    0.5898619438711390    0.0941763762804961 C
   0.1807777313998755    0.6738790316997830    0.0939899041612198 C
   0.3045949699998767    0.4214900856732666    0.0942472188040769 C
   0.1818321084641149    0.8403771184696350    0.0940206905955507 C
   0.4300691514415238    0.1782020384212662    0.0947081184364860 C
   0.5532077948699272    0.9214328083511755    0.0953870604829599 C
   0.4292281270010984    0.8353247490028424    0.0947645521948813 C
   0.8039113957051101    0.0892495686398725    0.0953038264158896 C
   0.6799468991865090    0.1796686364498828    0.0956475731287167 C
   0.8049673048820960    0.9200530291065920    0.0953072779981607 C
   0.6847198404394590    0.3470711951422448    0.0961594406070957 C
   0.8130481420213352    0.5911536654223348    0.0955643615440256 C
   0.6860608884097023    0.6660443361786865    0.0962654470352907 C
   0.8135446405566743    0.4216769071467664    0.0955679243872870 C
   0.6792439063757096    0.8346173534445652    0.0958101561974873 C
   0.9342215930765260    0.6728418867912561    0.0946318121030662 N
   0.5541493649745097    0.0944737979876235    0.0951938489325007 N
   0.4265149600575074    0.3398296474698739    0.0947164089317170 N
   0.4249983641698848    0.6727948967631622    0.0947778045187593 N
   0.3058008335877340    0.9226732573595600    0.0941275282567450 N
   0.5562188018030365    0.5075141545566443    0.0961247325454332 Co
