Title
1.0
   4.9440799999999996    0.0000000000000000    0.0000000000000000
   0.0000000000000000    8.5647549999999999    0.0000000000000000
   0.0000000000000000    0.0000000000000000   20.0000000000000000
C N Rh
11 3 1
direct
   0.0005458446849469    0.2912006350084580    0.0976007108593235 C
   0.2500000000000000    0.0392127069607907    0.0991564194067421 C
  -0.0037753437551811    0.9567758636864365    0.0984687195333891 C
   0.7500000000000000    0.2073805542936787    0.0950569020239429 C
   0.4994541553150531    0.2912006350084580    0.0976007108593235 C
   0.7500000000000000    0.0410192646377162    0.0948724716772157 C
   0.7500000000000000    0.7183901628155818    0.1006554084858318 C
   0.7500000000000000    0.5387935475910223    0.0984976302496407 C
   0.5037753437551812    0.9567758636864365    0.0984687195333891 C
   0.5038997618497930    0.4574883721998087    0.1024275082379503 C
  -0.0038997618497929    0.4574883721998087    0.1024275082379503 C
  -0.0140726333624963    0.7958469049207051    0.1028990133842713 N
   0.5140726333624963    0.7958469049207051    0.1028990133842713 N
   0.2500000000000000    0.2057587059503646    0.0984114807751218 N
   0.2500000000000000    0.6185025061200317    0.1185377833516402 Rh
