Title
1.0
   4.9440799999999996    0.0000000000000000    0.0000000000000000
   0.0000000000000000   17.1295089999999988    0.0000000000000000
   0.0000000000000000    0.0000000000000000   20.0000000000000000
C N Os
27 3 1
direct
  -0.0090425458074339    0.1057125252863646    0.2962951624511889 C
   0.2388722236310191    0.1483220651740849    0.2970869369539131 C
   0.2337833072205701    0.2325556549074233    0.2999162594134924 C
  -0.0189766751948068    0.2741212818053597    0.3035913216142398 C
   0.0202043233614477    0.6008482658008815    0.2935748891780191 C
   0.2626418570192679    0.7258424456866833    0.2964401863903516 C
   0.0060107031049549    0.8523796187839691    0.2948918694755365 C
   0.2532865700478874    0.8949483885691633    0.2951835199892877 C
   0.2478799645409261    0.9792420792241507    0.2952285540695460 C
   0.0113142229658090    0.7678343363303619    0.2949746273085081 C
   0.4906559379672917    0.1058305371955512    0.2955007482170516 C
   0.7393013415606364    0.1479109399072080    0.2959747863156826 C
   0.7330178959438403    0.2322222583827681    0.2976865424037551 C
   0.4960830845853659    0.0214795611669217    0.2950631633101468 C
   0.7405459263501061    0.3951174693410780    0.3051799897077836 C
   0.7623522376266900    0.4817940056838043    0.3057166516338584 C
   0.4814688040162517    0.2748698018009355    0.2978379935995831 C
   0.5197658637812741    0.6008131227965012    0.3033902440926238 C
   0.7613029099989236    0.7267453326810687    0.2948640328512917 C
   0.5038476215133004    0.8526425662084645    0.2953597546558649 C
   0.7531550057445121    0.8945201354965207    0.2948994993464852 C
   0.7478953899483078    0.9790072459435640    0.2949646915623449 C
   0.5094034969788890    0.7679891952553013    0.2959321639823436 C
   0.7678050658465716    0.6431485357004842    0.2954827870391508 C
  -0.0037649225575611    0.0214505172527977    0.2953928159012266 C
   0.0079228757759024    0.5179060510634889    0.2921394811349542 C
   0.4937483359364389    0.3589187357385353    0.2980263354560518 C
   0.5243938180498089    0.5225058572220977    0.3189230959712813 N
  -0.0259700116576670    0.3540191090290825    0.3150786543286373 N
   0.2683896043480483    0.6420960409161905    0.2982089517353108 N
   0.2427127673534295    0.4385483196491904    0.3322542899104410 Os
