Title
1.0
   8.5490480000000009    0.0000000000000000    0.0000000000000000
   0.0000000000000000    8.5490480000000009    0.0000000000000000
   0.0000000000000000    0.0000000000000000   20.0000000000000000
C N Ni
21 3 1
direct
   0.9095538093100802    0.2094198481372210    0.0978657674664345 C
   0.9129493474217394    0.8012311012434534    0.0978158349304580 C
   0.1999940423045963    0.0824098109689994    0.0980907733942768 C
   0.0737308652923088    0.2055046585621537    0.0980578301388496 C
   0.1569149404820645    0.6484015400771371    0.0979754951203540 C
   0.0732057829763996    0.5029407038166779    0.0980287219826439 C
   0.1564988997649554    0.3571203529289180    0.0981094809318779 C
   0.0790827774398417    0.7983047255306418    0.0979515945945296 C
   0.4946052690652655    0.0829736457787890    0.0978974699104320 C
   0.3465961318549240    0.1650151921427518    0.0980629632389066 C
   0.4948289471950009    0.9131314187195716    0.0978917202793588 C
   0.3483095714866924    0.8298566947489576    0.0980430324659785 C
   0.7864262830714550    0.0864921608217291    0.0977070323212027 C
   0.6384367974484795    0.1671030201340664    0.0977770641488167 C
   0.7895725563955477    0.9198319479415578    0.0977307658065149 C
   0.8283879732027821    0.6514656892264949    0.0979241689080328 C
   0.8230067167416629    0.3603951094506931    0.0979250788269609 C
   0.6428909390555977    0.8334188768843100    0.0978650556659215 C
   0.3247269211328770    0.3364989943339224    0.0980295783548254 C
   0.3245026295579931    0.6650887094730713    0.0979837607251249 C
   0.6571502596905622    0.3389352771558136    0.0978192606362240 C
   0.9058294131142620    0.5050216277059033    0.0980438534314060 N
   0.6682829292181440    0.6704070639364270    0.0980175185079966 N
   0.2000212867807554    0.9165532171128028    0.0981302793012900 N
   0.4899069099960048    0.4972686131679493    0.0979608989115660 Ni
