Title
1.0
   9.8694509999999998    0.0000000000000000    0.0000000000000000
   0.0000000000000000    8.5490480000000009    0.0000000000000000
   0.0000000000000000    0.0000000000000000   20.0000000000000000
C N Cu
28 3 1
direct
   0.0558861237183974    0.0916064391488784    0.0843193950080474 C
   0.9302170128744731    0.1756372668651447    0.0882242051333171 C
   0.0566762252666883    0.9231115058235315    0.0818910996792643 C
   0.9291757545178098    0.3416373095219669    0.0950009487710112 C
   0.0561229169873281    0.5899825130696118    0.0878656617342623 C
   0.9311606201787769    0.6720244810255842    0.0882284289560384 C
   0.0552990680423632    0.4230002896270190    0.0922709575355038 C
   0.9316244393748556    0.8397934655691334    0.0841616810563509 C
   0.3054713728806742    0.0870220015601279    0.0854419142545593 C
   0.1816522783880459    0.1733808040817837    0.0867591088795926 C
   0.3075341045659222    0.9221598643262172    0.0849939666835299 C
   0.1812539602677178    0.3393086869074385    0.0915016850719675 C
   0.3063359713919379    0.5877683553314197    0.0952551070357530 C
   0.1806692617316940    0.6704517080632871    0.0864135522605680 C
   0.1825484320553100    0.8379711209123376    0.0832191030838230 C
   0.5565082499250491    0.0869730990757945    0.0930046793546221 C
   0.4301320749612382    0.1686365373946195    0.0904572626591042 C
   0.4306239388561581    0.3327919649359179    0.1008037780880283 C
   0.4323578678527347    0.8378876125903146    0.0947332844656261 C
   0.8068433532391420    0.0907847530017615    0.0866992849629320 C
   0.6814332963740325    0.1719114374284718    0.0931053252760430 C
   0.8068325261284541    0.9256660483353317    0.0860062503324215 C
   0.6783361803990622    0.3366452771614137    0.1053896479681775 C
   0.8077259459800453    0.5936056970690031    0.1042022131493610 C
   0.6858708712964078    0.8421577461813661    0.1002241472023410 C
   0.4236270937818043    0.6758992388123684    0.1059045934396807 C
   0.5512064640630133    0.4039391499107798    0.1208516476298602 C
   0.6970149977879860    0.6883792231308680    0.1237643409998290 C
   0.5577546373834174    0.9216531616156829    0.0969200577636739 N
   0.3057637908768949    0.4205378854078408    0.0964031154158399 N
   0.8045569852081820    0.4243520847377835    0.1046876384221161 N
   0.5514231836443897    0.5935692713772024    0.1669709177267711 Cu
