Title
1.0
   9.8694509999999998    0.0000000000000000    0.0000000000000000
   0.0000000000000000    8.5490480000000009    0.0000000000000000
   0.0000000000000000    0.0000000000000000   20.0000000000000000
C N Os
28 3 1
direct
   0.0562525956246736    0.0915127184748775    0.0830857325758571 C
   0.9303251837752260    0.1741081287933303    0.0861926795148406 C
   0.0562519473737356    0.9232322852162015    0.0812063444067983 C
   0.9302313761801997    0.3405352507909751    0.0910848213350008 C
   0.0562146436390595    0.5901266294832751    0.0845914253551350 C
   0.9314058517277730    0.6716243037568813    0.0857882263129499 C
   0.0562075016587086    0.4231635469280073    0.0891183548054895 C
   0.9308205065529688    0.8392486372303818    0.0833463226519758 C
   0.3057462138643379    0.0890138897760513    0.0857728200320260 C
   0.1821950701150835    0.1740872263663210    0.0859195830565849 C
   0.3070507865053874    0.9236450835944919    0.0859775946661299 C
   0.1822041961520839    0.3405187887562642    0.0908036979703514 C
   0.3042880350090847    0.5902936989846277    0.0987086386883743 C
   0.1810692406496333    0.6715978753445613    0.0853315592486658 C
   0.1817039808773398    0.8392204795748649    0.0829398243282856 C
   0.5562773746485716    0.0870139824781458    0.0941717674418679 C
   0.4308515338494851    0.1706945964585285    0.0924666212879316 C
   0.4313432080830523    0.3349388141233476    0.1025834376852953 C
   0.4292328379983691    0.8406030779934573    0.0989075976158874 C
   0.8068223913471293    0.0890283302138264    0.0862143680621556 C
   0.6817163964812955    0.1707176521083252    0.0927862080362773 C
   0.8055253334000538    0.9236809887283361    0.0864926552353765 C
   0.6811532707075489    0.3349555016928301    0.1029046434064008 C
   0.8082477563796466    0.5903564038287121    0.0993723267071058 C
   0.6833384022262455    0.8406469578788285    0.0993626443494010 C
   0.4189736574894912    0.6803201117933569    0.1185489324674057 C
   0.5561461731668796    0.4071513123950051    0.1217383476982702 C
   0.6935044127180122    0.6804031324458963    0.1191034359233421 C
   0.5562695974930670    0.9212552605294245    0.0987531387502509 N
   0.3060090931356373    0.4223226320428365    0.0987740679315465 N
   0.8064651280519101    0.4223472820867321    0.0992642833563407 N
   0.5557953031183165    0.5918814201312997    0.1743628990966962 Os
