Title
1.0
   4.9440799999999996    0.0000000000000000    0.0000000000000000
   0.0000000000000000    8.5647549999999999    0.0000000000000000
   0.0000000000000000    0.0000000000000000   20.0000000000000000
C N Pt
12 2 1
direct
   0.2499269069457752    0.2081306923766491    0.1004248686898503 C
  -0.0033279789179527    0.2944235589184432    0.1004810014684757 C
   0.2500816139645520    0.0414589878844462    0.1004306649222040 C
  -0.0017064009698712    0.9584369952989837    0.1005186012277546 C
   0.7490748185294869    0.2083133063893449    0.1005301998513967 C
   0.5016885513236903    0.2911316039976987    0.1004781620375836 C
   0.7509176932328470    0.0412587136766836    0.1005381499558763 C
   0.7508399664409336    0.7151861918649568    0.1006798210044796 C
   0.7491826527975456    0.5343685651341742    0.1006477101551601 C
   0.5033018998408401    0.9551151592274557    0.1004759930835203 C
   0.5098459937874378    0.4548517441672419    0.1005041797931540 C
  -0.0098215924867540    0.7947041961564717    0.1005980865589976 C
  -0.0145462452373940    0.4560048409734463    0.1005878439477118 N
   0.5145454162229480    0.7935462923378516    0.1005551909361799 N
   0.2499967045259160    0.6247501515961553    0.1005295263676587 Pt
