Title
1.0
   4.9440799999999996    0.0000000000000000    0.0000000000000000
   0.0000000000000000    8.5647549999999999    0.0000000000000000
   0.0000000000000000    0.0000000000000000   20.0000000000000000
C N Au
12 3 1
direct
  -0.0167820263284477    0.2964642840220424    0.0911861909479490 C
   0.2426021301408735    0.0482990985176894    0.0908517592445403 C
   0.0071089035006188    0.7935724455447669    0.0883026313682753 C
  -0.0047067697838710    0.9636762651261881    0.0881886756449603 C
   0.7386310905964271    0.2090603464839367    0.0910214104291009 C
   0.4913192275031729    0.2943554137485213    0.1017530940115760 C
   0.7428017622542614    0.0439044342146145    0.0888104673076187 C
   0.7503956956618880    0.7075286654316809    0.0922295313490026 C
   0.4902383770752406    0.7942988135706445    0.0898767227146113 C
   0.7501515586654192    0.5355470087814623    0.0994737880167691 C
   0.4931291335687232    0.9636642632406124    0.0899007768558873 C
   0.5179935241104503    0.4504129673592316    0.1234405662935032 C
  -0.0221768493173344    0.4503862549950712    0.0854166907406201 N
   0.2501290553181947    0.7185261938779267    0.0881956306486329 N
   0.2391666694211132    0.2133451545731209    0.0959802097483586 N
   0.3299985176132699    0.5169583905124917    0.2078838546786038 Au
