Title
1.0
   4.9440799999999996    0.0000000000000000    0.0000000000000000
   0.0000000000000000   17.1295089999999988    0.0000000000000000
   0.0000000000000000    0.0000000000000000   20.0000000000000000
C N Mo
27 4 1
direct
   0.0000512264451310    0.1045974357316688    0.2925540415772636 C
   0.2498690068415817    0.1467352280244790    0.2940185136146699 C
   0.2498716691517059    0.2303255548340728    0.2984054803604265 C
   0.0054410378809949    0.3539191446940951    0.3091544474298309 C
  -0.0020526611642974    0.2719720921648511    0.3002002457271634 C
  -0.0050150579955995    0.6020200811905536    0.2994834489196190 C
   0.2499186570194844    0.7267354717624541    0.2945521739680620 C
   0.0004602339091860    0.8532275219603883    0.2921382464555033 C
   0.2499072359265965    0.8952948986456569    0.2919235683020359 C
   0.2498949209030411    0.9790275156225665    0.2917467586311847 C
   0.0008582426994188    0.7693794537233168    0.2932997729301578 C
   0.4997023886044415    0.1045955464236669    0.2925529872240195 C
   0.7498835159967646    0.1466331886376341    0.2929355161227098 C
   0.7498851899027642    0.2296170369102301    0.2957623361994860 C
   0.4999030161051847    0.0209758405980184    0.2917183381560557 C
   0.4943405103429859    0.3539172308599501    0.3091511507297646 C
   0.7499102524114816    0.4828567828061217    0.3061572126046249 C
   0.5018036200871293    0.2719701274522572    0.3001936056536466 C
   0.5048736565613691    0.6020218904536809    0.2994670387868845 C
   0.7499289693136723    0.7283070334355742    0.2939654976073659 C
   0.4993595003150197    0.8532276226775835    0.2921357252822786 C
   0.7499057506760208    0.8951102045805530    0.2917780639063648 C
   0.7498926336087518    0.9788511819895590    0.2915141167544074 C
   0.4989661084858060    0.7693784293593057    0.2932988914454741 C
   0.7499254942673562    0.6449043764132499    0.2969080354583772 C
   0.2499246188081481    0.6420819988878993    0.2977366369771463 C
  -0.0001160785998084    0.0209724111074788    0.2917193283559736 C
   0.5108481602596046    0.5207693854711047    0.3056700597149129 N
   0.9889654232810445    0.5207712067067212    0.3057048677366078 N
   0.2498945422717595    0.3900871686881764    0.3196028563370029 N
   0.7499074056262298    0.3988344609529940    0.3088709517539691 N
   0.2499138100570381    0.4894334772341296    0.3882450852769626 Mo
