Title
1.0
   9.8694509999999998    0.0000000000000000    0.0000000000000000
   0.0000000000000000    8.5490480000000009    0.0000000000000000
   0.0000000000000000    0.0000000000000000   20.0000000000000000
C N Rh
27 3 1
direct
   0.0555272747045935    0.0886460832558755    0.0836703738489383 C
   0.9309409017174120    0.1713599831924272    0.0849130648402846 C
   0.0567955933023504    0.9223797538171514    0.0846868352349510 C
   0.9326556403164254    0.3387594748146213    0.0842110989614633 C
   0.0555961744344200    0.5909583967830404    0.0831700147796633 C
   0.0560518877987764    0.4243962475823749    0.0818897986257404 C
   0.9310533927591572    0.8381712363121865    0.0863148170897801 C
   0.3077164136211644    0.0900166250467051    0.0908197763183381 C
   0.1821144298973793    0.1714512809815751    0.0851681079989752 C
   0.1804942506057764    0.3395689967143341    0.0847506696104470 C
   0.3008301600455036    0.5910489670653715    0.0960059818728897 C
   0.1797643101668491    0.6752379713407312    0.0866908717460090 C
   0.3021836920285331    0.4219458437227384    0.0942243486136885 C
   0.1823193549813265    0.8420924040450383    0.0873260217502752 C
   0.4320329028786943    0.1756455687140042    0.0992064563219817 C
   0.5551719405198479    0.9232860824017277    0.1032567163165109 C
   0.4261858700970472    0.3413315583157479    0.1059136638897921 C
   0.4220726069622373    0.6729401197460230    0.1117876335190936 C
   0.4285322737314448    0.8378764895442609    0.1031430278927340 C
   0.8050760431153027    0.0883318749411169    0.0905539461088588 C
   0.6820245217040000    0.1757769706189699    0.0997427715887595 C
   0.8056939458440917    0.9197068662345037    0.0912394108673802 C
   0.6885715017681365    0.3407669908005483    0.1086232876996623 C
   0.8111414973659148    0.5909906065064134    0.0948658721468335 C
   0.6885303725253162    0.6690596827524583    0.1066626862221363 C
   0.8120300303083199    0.4206128495076983    0.0942653024584285 C
   0.6794664561460344    0.8364920154269578    0.1002746990262784 C
   0.9328254834064769    0.6726263849560423    0.0855680634213204 N
   0.5569677064009149    0.0909531501911753    0.1021302780162756 N
   0.3055625226658225    0.9228834805706005    0.0919889996432230 N
   0.5572058481807324    0.5055610440975998    0.1379004035693145 Rh
