Title
1.0
   4.9440799999999996    0.0000000000000000    0.0000000000000000
   0.0000000000000000    8.5647549999999999    0.0000000000000000
   0.0000000000000000    0.0000000000000000   20.0000000000000000
C N Cr
13 1 1
direct
   0.0019071292834024    0.2936130922536624    0.0957890434501431 C
   0.2500000000000000    0.0430972035132928    0.0959612047018746 C
   0.0014308918969687    0.9573621377629705    0.0969376422429781 C
   0.7500000000000000    0.2081012595016975    0.0939279130752719 C
   0.4980928707165975    0.2936130922536624    0.0957890434501431 C
   0.7500000000000000    0.0405034533962646    0.0946178234892222 C
   0.7500000000000000    0.7104584533103736    0.1016096885900109 C
   0.7500000000000000    0.5370140384392844    0.1007642701651681 C
   0.4985691081030311    0.9573621377629705    0.0969376422429781 C
   0.4988748056593683    0.4586084619284685    0.1006702823358175 C
   0.0011251943406318    0.4586084619284685    0.1006702823358175 C
   0.0000132726983396    0.7899922215629618    0.1025400636809454 C
   0.4999867273016602    0.7899922215629618    0.1025400636809454 C
   0.2500000000000000    0.2082174233489731    0.0951454814524759 N
   0.2500000000000000    0.6251373414739897    0.1340795551062114 Cr
