Title
1.0
   8.5490480000000009    0.0000000000000000    0.0000000000000000
   0.0000000000000000    8.5490480000000009    0.0000000000000000
   0.0000000000000000    0.0000000000000000   20.0000000000000000
C N Cr
20 4 1
direct
   0.9092318432572060    0.2069244879364688    0.0975182630464190 C
   0.9122898709732917    0.8011377333699503    0.0975895817679537 C
   0.1958826525129606    0.0829921106695733    0.0977588456277950 C
   0.0746926805744169    0.2017783079663884    0.0977109952970569 C
   0.1571883889224953    0.6494648041319411    0.0976729144432614 C
   0.0765435335443237    0.5017794555858356    0.0978039583213916 C
   0.1564879018690234    0.3516851142092314    0.0979407246307815 C
   0.0782530214443048    0.7997096786039213    0.0975922051554690 C
   0.4936310111382498    0.0868815468290561    0.0977250319794028 C
   0.3420434181208273    0.1655515044381488    0.0979176749347753 C
   0.4932122769767424    0.9161975113876147    0.0977257153165331 C
   0.3452453606284882    0.8346190533574526    0.0976880138370352 C
   0.7875984528303952    0.0862351109224057    0.0974739685385265 C
   0.6394248863623099    0.1679884001493521    0.0975729669559178 C
   0.7893664296166993    0.9194576198597657    0.0975705870808321 C
   0.8304637490362649    0.6509698034576399    0.0977424807142195 C
   0.8280387134697271    0.3571783458226606    0.0975986084117971 C
   0.6425832110756942    0.8352902178384520    0.0977492190016621 C
   0.3225690997193986    0.6714176536989793    0.0977063275902741 C
   0.6631951748992960    0.3372025832127212    0.0976989073349007 C
   0.9091226482211142    0.5033687346993212    0.0977749619673117 N
   0.3177947506049650    0.3282849716822580    0.0981723312257043 N
   0.6698266798282433    0.6711820019870028    0.0979647729915030 N
   0.1967216992592766    0.9167736379671056    0.0976795405493057 N
   0.4940045451142718    0.5007196102167665    0.0983564032801510 Cr
