Title
1.0
   9.8694509999999998    0.0000000000000000    0.0000000000000000
   0.0000000000000000    8.5490480000000009    0.0000000000000000
   0.0000000000000000    0.0000000000000000   20.0000000000000000
C Os
30 1
direct
   0.0562151468082584    0.0887943301695984    0.0844301347247741 C
   0.9307091393491431    0.1716199012079396    0.0863403411444425 C
   0.0562168499550528    0.9235324488875540    0.0844495841152569 C
   0.9325180118474459    0.3382151519720153    0.0840406733217502 C
   0.0562395786060008    0.5895422951335831    0.0802625455392136 C
   0.9325353148208662    0.6740728954612767    0.0841080238831547 C
   0.0562250776152453    0.4227691820101167    0.0802422065590906 C
   0.9307197402938937    0.8406755502730932    0.0864068834870418 C
   0.3074745920168655    0.0905424698884330    0.0934776978575288 C
   0.1817307415403787    0.1716412374460610    0.0861825535181101 C
   0.3074708681084815    0.9218246664146131    0.0934625461299421 C
   0.1799427961329633    0.3382250826444061    0.0838642959267734 C
   0.3014274742698088    0.5900547153545793    0.0920639713351212 C
   0.1799455781697170    0.6741175082722470    0.0838678258197992 C
   0.3014347009391110    0.4222462774240772    0.0920670462764384 C
   0.1817438011238213    0.8407064889362962    0.0861801539390126 C
   0.5562211410359353    0.0902257584480321    0.1048217903121446 C
   0.4316193665606572    0.1782352875348935    0.1018874605755002 C
   0.5562248246999494    0.9220653661222332    0.1048259907604446 C
   0.4252410478576619    0.3462265242838601    0.1060733949616081 C
   0.4252284503899052    0.6661128279775563    0.1060825593035505 C
   0.4316072898834214    0.8340848496839374    0.1018747731101502 C
   0.8050045076623497    0.0905140096194568    0.0937036813133180 C
   0.6808346499688824    0.1782590596390944    0.1020645700477850 C
   0.8050139155719999    0.9217844385696932    0.0937431465212583 C
   0.6872384163582533    0.3462428426977041    0.1063379311308982 C
   0.8110971309734590    0.5900253115599893    0.0924173648829130 C
   0.6872768942461850    0.6660739920484645    0.1063456404769458 C
   0.8110674946893784    0.4222344912932930    0.0923855040753929 C
   0.6808707516148231    0.8340441844900475    0.1021006983337913 C
   0.5560397068900955    0.5061658545358684    0.1448540106168904 Os
