Title
1.0
   8.5490480000000009    0.0000000000000000    0.0000000000000000
   0.0000000000000000    8.5490480000000009    0.0000000000000000
   0.0000000000000000    0.0000000000000000   20.0000000000000000
C N Rh
20 4 1
direct
   0.9100343009888117    0.2062474627805737    0.0954615752442393 C
   0.9067823160656034    0.5018159054232425    0.0953140917317018 C
   0.9100576130754374    0.7973425040590469    0.0954769339667151 C
   0.1974460597040353    0.0847219487796650    0.0954898117137344 C
   0.0759718038950234    0.2062194474760619    0.0954705747191940 C
   0.1974608164203591    0.9188017088950767    0.0954971675919305 C
   0.1593049079076198    0.6496331950160227    0.0953464712312958 C
   0.0792782900109885    0.5017852784029516    0.0953346125086819 C
   0.1592784771567766    0.3539122159377582    0.0953316691382409 C
   0.0759878566220312    0.7973099709278078    0.0954824339158407 C
   0.4929796810809338    0.0880376645934830    0.0953599263282848 C
   0.3451365269654267    0.1680436942874937    0.0953564573202648 C
   0.4929841883733764    0.9155670295251012    0.0953665105231513 C
   0.3451687128700805    0.8355110328681392    0.0953646232187791 C
   0.7885345502955552    0.0847605043582196    0.0954730419610440 C
   0.6408217695969554    0.1680868566626053    0.0953263727301957 C
   0.7885608931027499    0.9188540237869974    0.0954828828174265 C
   0.8267556369534894    0.6496690324204556    0.0953238603487385 C
   0.8267592001306834    0.3539478577807960    0.0953033062754521 C
   0.6408316757796065    0.8355409687464902    0.0953391758116812 C
   0.3216906094811184    0.3304026042803474    0.0951935233042093 N
   0.3217211534035480    0.6731431924849269    0.0952068085691459 N
   0.6643551416866343    0.3304443436458104    0.0951667915244383 N
   0.6643560163337532    0.6731687822054649    0.0951821891357282 N
   0.4931538020993958    0.5018227746554758    0.0950541883698637 Rh
