Title
1.0
   8.5490480000000009    0.0000000000000000    0.0000000000000000
   0.0000000000000000    8.5490480000000009    0.0000000000000000
   0.0000000000000000    0.0000000000000000   20.0000000000000000
C N Pt
20 4 1
direct
   0.9094569544244890    0.2082829158436462    0.0975284835768524 C
   0.9122225908212281    0.8000928462702523    0.0976329309711156 C
   0.1965062263963331    0.0835170364401721    0.0977487463938108 C
   0.0752938410312756    0.2022865636843044    0.0977022170150345 C
   0.1574979495462444    0.6487172250087865    0.0978026734333319 C
   0.0766818659913755    0.5020434193275317    0.0978668236722707 C
   0.1572839258419178    0.3530963477381924    0.0979563076778806 C
   0.0787233695159513    0.7987560772215774    0.0976588697961824 C
   0.4934097503229121    0.0869533497805773    0.0977061052764765 C
   0.3427670031222450    0.1662333458576031    0.0979003047267078 C
   0.4927285546042138    0.9159371684894561    0.0976870082853215 C
   0.3458452882668030    0.8343795421415529    0.0977083990663184 C
   0.7867202777735863    0.0856531558460304    0.0974790234655780 C
   0.6385498504190616    0.1673458575705516    0.0976145269981598 C
   0.7890801800508203    0.9194397861031330    0.0975880116067889 C
   0.8301125765374607    0.6503334074916006    0.0977383174324428 C
   0.8281497598993894    0.3572478986563406    0.0976621571347908 C
   0.6412847256993464    0.8348499978095340    0.0977367433662800 C
   0.3236930139285054    0.6698804977870338    0.0978118203692365 C
   0.6618746293690773    0.3369577200189767    0.0977099855981143 C
   0.9086270089955986    0.5034971023583614    0.0977913887944387 N
   0.3184846400161371    0.3296931789553287    0.0981385819840372 N
   0.6683717733028612    0.6717845012776275    0.0978903187555493 N
   0.1975919734719563    0.9163352133155693    0.0976696550779868 N
   0.4944542706511963    0.5014758450062733    0.0979755995252740 Pt
