Title
1.0
   9.8694509999999998    0.0000000000000000    0.0000000000000000
   0.0000000000000000    8.5490480000000009    0.0000000000000000
   0.0000000000000000    0.0000000000000000   20.0000000000000000
C N Cu
25 5 1
direct
   0.0555398828584191    0.0902181763735787    0.0950235195805162 C
   0.9302840933822631    0.1729684444426341    0.0956980320701427 C
   0.0574529341592654    0.9239394150227761    0.0950484455743324 C
   0.9330637615073066    0.3403700771884214    0.0953990005688373 C
   0.0572758305661586    0.5898934371658571    0.0941953974829154 C
   0.9339169238253315    0.6744060371072833    0.0953923918629939 C
   0.0573484801098069    0.4230472095114451    0.0941959177849916 C
   0.9323174279487852    0.8409644831361480    0.0957147666548007 C
   0.3069955244990673    0.0875636403369462    0.0962768422976437 C
   0.1816800457971419    0.1718142913026243    0.0950533328144942 C
   0.1810815388694304    0.3383852244804684    0.0946204996407669 C
   0.3044663191925293    0.5896031672741457    0.0961322158546497 C
   0.1809705920526861    0.6737231574169981    0.0946071997217945 C
   0.3049923360891436    0.4211411481395498    0.0960343841854439 C
   0.1814664820790812    0.8396989368915514    0.0950898759723287 C
   0.4299564708905429    0.1751345203668319    0.0978692934994219 C
   0.5541754726822500    0.9183823043468673    0.0988127066304160 C
   0.4287918827619364    0.8343409369069684    0.0980476060166187 C
   0.8039082909854601    0.0894044807864076    0.0970784099908815 C
   0.6792065571826239    0.1775821791512033    0.0986500122569499 C
   0.8060977930157303    0.9227536092778730    0.0971324257441621 C
   0.6854835945564186    0.3414517580016434    0.0996228994426789 C
   0.8107858775210575    0.5932306863786566    0.0973173717898772 C
   0.8095386233076670    0.4241858110914585    0.0973992249512719 C
   0.6818353347468986    0.8339174263081572    0.0986152131699524 C
   0.5543950994579088    0.0917694872864321    0.0989136196175147 N
   0.4251858454557218    0.3360408908552464    0.0981488789474023 N
   0.6896496110416265    0.6726334810711606    0.0992106448595681 N
   0.4231700570859720    0.6749318507703236    0.0986745579498978 N
   0.3061194542560523    0.9222992833322587    0.0962117469003456 N
   0.5559828621157246    0.5050794482780968    0.1007785661664253 Cu
