Title
1.0
   4.9440799999999996    0.0000000000000000    0.0000000000000000
   0.0000000000000000    8.5647549999999999    0.0000000000000000
   0.0000000000000000    0.0000000000000000   20.0000000000000000
C Rh
14 1
direct
   0.2500000000000000    0.2072102459428412    0.0965964127728623 C
   0.0010229005094963    0.2933442082083894    0.0968295642160652 C
   0.2500000000000000    0.0423896880485285    0.0966540699641219 C
   0.0010856877997851    0.9562394904198837    0.0969364980245875 C
   0.7500000000000000    0.2090261612439450    0.0947945063544286 C
   0.4989770994905040    0.2933442082083894    0.0968295642160652 C
   0.7500000000000000    0.0405230297621064    0.0948713518661437 C
   0.7500000000000000    0.7103902323032718    0.0981259199583436 C
   0.7500000000000000    0.5392649963743079    0.0980446793830054 C
   0.4989143122002149    0.9562394904198837    0.0969364980245875 C
   0.5050652825264583    0.4583575832918075    0.1013760749267588 C
  -0.0050652825264586    0.4583575832918075    0.1013760749267588 C
  -0.0049545911302657    0.7912323160268236    0.1014816508169999 C
   0.5049545911302655    0.7912323160268236    0.1014816508169999 C
   0.2500000000000000    0.6245294504311929    0.1356454837322751 Rh
