Title
1.0
   8.5490480000000009    0.0000000000000000    0.0000000000000000
   0.0000000000000000    8.5490480000000009    0.0000000000000000
   0.0000000000000000    0.0000000000000000   20.0000000000000000
C N Fe
21 3 1
direct
   0.9095401471148059    0.2072424223961024    0.0976277433943362 C
   0.9116254045761462    0.7990817018875080    0.0976762890434613 C
   0.1990008287441047    0.0826980600696001    0.0978059806887717 C
   0.0758982256174427    0.2030299625326090    0.0976857990896088 C
   0.1584453115542669    0.6489844073888634    0.0978855714777402 C
   0.0765727530768455    0.5006792335848362    0.0977944817453277 C
   0.1581331819740817    0.3544217667431804    0.0977663086644331 C
   0.0784418438054878    0.7986032027465391    0.0977770731291778 C
   0.3470365556993752    0.1655619816339307    0.0978523296751568 C
   0.4930734678218315    0.9193832750243627    0.0977850049176459 C
   0.3458150893558554    0.8363066831453732    0.0978763466640224 C
   0.7863430648675245    0.0850162989861547    0.0976428285466116 C
   0.6370859533241159    0.1682757319206797    0.0976759401810754 C
   0.7883852555700374    0.9196081718451408    0.0976303059211963 C
   0.8288443213531790    0.6482334998205356    0.0976906791760360 C
   0.8270337506664873    0.3569130163778755    0.0976207566254846 C
   0.6383812632905985    0.8365673362677412    0.0976871959140973 C
   0.3268681767453329    0.3328685744768095    0.0978242955493017 C
   0.3253348158885987    0.6710831378161797    0.0978875427037374 C
   0.6584957941393976    0.3368114414465913    0.0976111444292274 C
   0.6615043113839566    0.6675470226134517    0.0976819589487112 C
   0.4940769720642326    0.0861379121734527    0.0978644766321092 N
   0.9091161873057410    0.5016369027881139    0.0977525753274503 N
   0.1971879700648964    0.9169270867200904    0.0978532550858014 N
   0.4931713539956443    0.5011711695942844    0.0977491164694585 Fe
