Title
1.0
   9.8694509999999998    0.0000000000000000    0.0000000000000000
   0.0000000000000000    8.5490480000000009    0.0000000000000000
   0.0000000000000000    0.0000000000000000   20.0000000000000000
C N Os
26 5 1
direct
   0.0566508522911676    0.0923643831811121    0.0866563921303040 C
   0.9308177539409364    0.1744966569302469    0.0891392414743842 C
   0.0568755559442412    0.9241196458771278    0.0860020593271421 C
   0.9296802290779473    0.3415498501262488    0.0931169579505921 C
   0.0558540557211652    0.5897607796903250    0.0885932341678692 C
   0.9319109254685620    0.6734417766978746    0.0906901341786709 C
   0.0574442384174889    0.4230792321265410    0.0912099776110747 C
   0.9318730001994754    0.8410047039313251    0.0883115910152683 C
   0.3058795318058837    0.0886683233408291    0.0865424533981854 C
   0.1827471477622503    0.1750291400997775    0.0878101197204994 C
   0.3068020295126332    0.9231677857551847    0.0872659476079607 C
   0.1830270403466978    0.3411356238837563    0.0913885884780501 C
   0.3061820895573812    0.5917743643639140    0.0951526098274692 C
   0.1811819212756235    0.6717941290958085    0.0882182549860130 C
   0.1815255017948303    0.8391497624534823    0.0868096160133825 C
   0.5555204300792196    0.0843044056395002    0.0950308931702322 C
   0.4315914211606919    0.1689113704076871    0.0916806519948466 C
   0.4334228209908101    0.3344396607260019    0.0979617741198182 C
   0.4283781132788178    0.8369178941080530    0.0946379486192037 C
   0.8067024254270123    0.0901322835128091    0.0886978283340320 C
   0.6802091127237665    0.1690229527164306    0.0944524988284866 C
   0.8064542444205569    0.9240747646247877    0.0889060964555213 C
   0.6779296675350084    0.3338769150006231    0.1022321991217719 C
   0.8071129853013438    0.5936677299498341    0.1004882495370003 C
   0.8024415278960775    0.4246572231516009    0.0999816791866081 C
   0.6841500662602457    0.8390584681425112    0.0967465779773375 C
   0.4215362523849888    0.6788360171829575    0.1068753345867526 N
   0.5531990957641501    0.4056277563330870    0.1150173184833215 N
   0.6919239665996764    0.6835380918562587    0.1131595994282018 N
   0.5560904917441059    0.9166418802475753    0.0961661193664588 N
   0.3106540436482428    0.4240820506903253    0.0953186991270201 N
   0.5538704616690087    0.5919203781564039    0.1714143537765368 Os
