Title
1.0
   8.5490480000000009    0.0000000000000000    0.0000000000000000
   0.0000000000000000    8.5490480000000009    0.0000000000000000
   0.0000000000000000    0.0000000000000000   20.0000000000000000
C N Cu
19 5 1
direct
   0.9076547547915094    0.2045820262899304    0.0974302922444952 C
   0.9075540224068709    0.5024789696301367    0.0977913866766282 C
   0.9102410013556023    0.8021316841318463    0.0974700390430067 C
   0.1960025418255581    0.0838866450794716    0.0975509501038400 C
   0.0759366115059695    0.2012822893334661    0.0974482751622452 C
   0.1596426643980696    0.6508754008689740    0.0977030519597218 C
   0.0793273766335316    0.5010683298867329    0.0977155428476332 C
   0.1596577892822598    0.3515165619036149    0.0977271926929129 C
   0.0786445470308111    0.7989624045582369    0.0975152188258880 C
   0.4926572351135541    0.0882181884497037    0.0978548157123240 C
   0.3437469850022419    0.1663223021351294    0.0978536921504868 C
   0.4923188196755683    0.9163456196102669    0.0977218214971483 C
   0.3440534197684635    0.8350111487569990    0.0977512996296918 C
   0.7884152993592559    0.0867890892471169    0.0974482401027540 C
   0.6399537156342922    0.1695076470150479    0.0979092597116836 C
   0.7891692579313474    0.9193912048516113    0.0974258189856425 C
   0.8282394347154677    0.6515862763848300    0.0977495619176661 C
   0.8261479785022640    0.3539672783746672    0.0978607981606455 C
   0.6409003657006193    0.8351802818163461    0.0976777842735313 C
   0.3202085216639664    0.3278856114771154    0.0980887720899821 N
   0.3206663932533388    0.6765375017629620    0.0979272487129934 N
   0.6646743697666425    0.3307855162972640    0.0984106318113187 N
   0.6667092614318468    0.6741821463700735    0.0979703128332902 N
   0.1974617003369020    0.9156471054830425    0.0975935665342962 N
   0.4954279329140407    0.5006487702854140    0.0981094263201546 Cu
