Title
1.0
   4.9440799999999996    0.0000000000000000    0.0000000000000000
   0.0000000000000000    8.5647549999999999    0.0000000000000000
   0.0000000000000000    0.0000000000000000   20.0000000000000000
C N Ni
12 3 1
direct
  -0.0056273523862280    0.2925356085345848    0.0894973239451369 C
   0.2506948517144237    0.0460827215242773    0.0901458665364704 C
   0.0069339692742758    0.7963803761191346    0.0986911542496715 C
   0.0016390489869199    0.9622868230010828    0.0889390231290751 C
   0.7487471335383084    0.2068342286340009    0.0883744878478779 C
   0.5023419715427589    0.2911145780773713    0.0991346249394348 C
   0.7505598449688271    0.0419376872412056    0.0866618201506259 C
   0.7547610719774815    0.7068292151269873    0.1023270748157564 C
   0.4997057271146380    0.7950309770647938    0.1008128526644772 C
   0.7571213196209180    0.5320554930157574    0.1062620194877640 C
   0.5011222497722598    0.9617715698813065    0.0915164297350967 C
   0.5210020002614035    0.4449707476037047    0.1232754975202392 C
  -0.0085738133298921    0.4504412498880442    0.0876168026965623 N
   0.2522752060827276    0.7255075274976153    0.1099371580191082 N
   0.2495952881691737    0.2104885186948480    0.0914399599164414 N
   0.2177014826920045    0.5357326780952859    0.1578799043462718 Ni
