Title
1.0
   9.8694509999999998    0.0000000000000000    0.0000000000000000
   0.0000000000000000    8.5490480000000009    0.0000000000000000
   0.0000000000000000    0.0000000000000000   20.0000000000000000
C Ir
31 1
direct
   0.0562584168366561    0.0900092788136682    0.0810613560385095 C
   0.9312176236097708    0.1730678865327006    0.0834872931096779 C
   0.0562395625417521    0.9232472503491538    0.0812279557009937 C
   0.9307096625933792    0.3399942613265029    0.0872788360144076 C
   0.0562331756075325    0.5890431454439663    0.0847560236029680 C
   0.9322711422604498    0.6730420899230255    0.0875538226005033 C
   0.0562244435014418    0.4230640551118962    0.0856117059950762 C
   0.9316767890235743    0.8396914031861890    0.0847404113940986 C
   0.3054891602494263    0.0894794402634160    0.0857421700858272 C
   0.1812864575795561    0.1730747823604981    0.0834636066510997 C
   0.3051062228107627    0.9233996332125283    0.0880327521813771 C
   0.1817525420160241    0.3400040675382498    0.0872496171716912 C
   0.3024052926357075    0.5900800163142648    0.1002261545516362 C
   0.1801985615895991    0.6730414283437949    0.0874809840466581 C
   0.3051581660873080    0.4220065567881357    0.0976292702750431 C
   0.1807942177274244    0.8396863432248394    0.0846817223940704 C
   0.5562515322061704    0.0874166602496070    0.0931690079684698 C
   0.4305706417939195    0.1707491824859287    0.0919225238648831 C
   0.5562326416912341    0.9226047490604442    0.0991501340121405 C
   0.4299028706644956    0.3351174490943176    0.1019016616568705 C
   0.4174044044513743    0.6813140096075174    0.1165610946062465 C
   0.5562182791949910    0.4049586741308318    0.1178260580877995 C
   0.4283461414814995    0.8419364907898350    0.1009070855759086 C
   0.8070130208193391    0.0894629679948334    0.0857936775454952 C
   0.6819443520727396    0.1707454148626576    0.0919607098500112 C
   0.8073590411769169    0.9233784347499786    0.0881090206565707 C
   0.6825774926204542    0.3351130854929332    0.1019322340136573 C
   0.8101026756262444    0.5900744162132041    0.1003440891182959 C
   0.6950952222608744    0.6813005967659946    0.1166673073591919 C
   0.8073136199307970    0.4219992020338938    0.0976975576455115 C
   0.6841169838425231    0.8419054825318359    0.1009819961001851 C
   0.5561686434960685    0.5902375452033664    0.1705271601251588 Ir
