Title
1.0
   4.9440799999999996    0.0000000000000000    0.0000000000000000
   0.0000000000000000    8.5647549999999999    0.0000000000000000
   0.0000000000000000    0.0000000000000000   20.0000000000000000
C N Nb
11 4 1
direct
  -0.0042701845613026    0.2924220412644405    0.0905213113330117 C
   0.2500000000000000    0.0443523717042789    0.0885340011454705 C
   0.0035930733921793    0.7952220924520442    0.1001773651547259 C
   0.0006378637841733    0.9607218450494034    0.0886921037824383 C
   0.7500000000000000    0.2061631151492777    0.0843864823078953 C
   0.5042701845613027    0.2924220412644405    0.0905213113330117 C
   0.7500000000000000    0.0411630422798419    0.0835134764337321 C
   0.7500000000000000    0.7046141054415328    0.1038451599468147 C
   0.4964069266078207    0.7952220924520442    0.1001773651547259 C
   0.7500000000000000    0.5321348935181950    0.1041080805738976 C
   0.4993621362158268    0.9607218450494034    0.0886921037824383 C
   0.5102670578726809    0.4490670688802961    0.1036143509502067 N
  -0.0102670578726810    0.4490670688802961    0.1036143509502067 N
   0.2500000000000000    0.7264498152323695    0.1137236933453865 N
   0.2500000000000000    0.2130905318583756    0.0889225426769858 N
   0.2500000000000000    0.5371660295237597    0.1794683011290620 Nb
