Title
1.0
   9.8694509999999998    0.0000000000000000    0.0000000000000000
   0.0000000000000000    8.5490480000000009    0.0000000000000000
   0.0000000000000000    0.0000000000000000   20.0000000000000000
C N Ni
27 4 1
direct
   0.0551399497894596    0.0905216107756812    0.0842971377792588 C
   0.9303914486695177    0.1761805766083291    0.0862721900592942 C
   0.0582214228723727    0.9228279766639453    0.0843287864737366 C
   0.9285633958947339    0.3436114042291496    0.0886921508404892 C
   0.0555728645579983    0.5912968706258779    0.0831368057261658 C
   0.0535675755534856    0.4242526946294660    0.0843996443270463 C
   0.9346332556835111    0.8408971920484906    0.0867475316843318 C
   0.3059319869085497    0.0851304939474216    0.0892749693161342 C
   0.1812823353112656    0.1703436877949554    0.0852852921804080 C
   0.1791842761708159    0.3377156293099068    0.0850298311593422 C
   0.3013201819754749    0.5843167484053154    0.0938550916447097 C
   0.1800610511501992    0.6730282922299060    0.0848732264975495 C
   0.3025667949806147    0.4179181291296967    0.0921535494295423 C
   0.1836055472610169    0.8396808776854212    0.0858796544703424 C
   0.5566102962031806    0.0856575303176404    0.0966826554267455 C
   0.5582174211591402    0.9179939375686282    0.1037007735222316 C
   0.4268245767541432    0.3301966940466497    0.1000842908217150 C
   0.4298768254838703    0.8338402387140386    0.1042731120264280 C
   0.8059609871241707    0.0919581496053441    0.0888215973319335 C
   0.6790554065746539    0.1737518288868349    0.0949121523488133 C
   0.8091636215602553    0.9259776010742128    0.0903821645123148 C
   0.6786748786556613    0.3428156682403131    0.1030704869086090 C
   0.8133451543856034    0.5986895423595592    0.1043422240818296 C
   0.8044589800568773    0.4298460037721504    0.0995644621846443 C
   0.6896056435579806    0.8429715916404747    0.1056928260938043 C
   0.4156350437543377    0.6714464548598560    0.1124368549944303 C
   0.5470820897399230    0.4068233271232888    0.1134836120386555 C
   0.7102703071197998    0.6894547301436565    0.1267708213158947 N
   0.3071566104013755    0.9214292972359065    0.0910039460507083 N
   0.4285029538234143    0.1643283212348974    0.0937589714430024 N
   0.9336256814259022    0.6755529275981588    0.0870111952645602 N
   0.5555304354407019    0.5897899714948300    0.1554569920453450 Ni
