Title
1.0
   8.5490480000000009    0.0000000000000000    0.0000000000000000
   0.0000000000000000    8.5490480000000009    0.0000000000000000
   0.0000000000000000    0.0000000000000000   20.0000000000000000
C N Ta
19 5 1
direct
   0.9088556309590835    0.2061750963687229    0.0957121816607782 C
   0.9109754585612747    0.8007228995269841    0.0955165987547542 C
   0.1964711733256462    0.0838123547509963    0.0952743551711931 C
   0.0756263005644209    0.2019005271332070    0.0951215620499463 C
   0.1544830895208035    0.6519157349149068    0.0981815672676186 C
   0.0753321223316635    0.5014047478176011    0.0972631868704361 C
   0.1537979188294240    0.3534862449739731    0.0967520628742817 C
   0.0787500761642914    0.7991236093907997    0.0963297361287738 C
   0.4940769184494896    0.0855177264593668    0.0974333567139240 C
   0.3451192035964034    0.1633212486117559    0.0970749095995924 C
   0.4931565460414503    0.9149672729677435    0.0969571717826624 C
   0.3431435124517644    0.8372413959019144    0.0978810368107116 C
   0.7884788123389003    0.0873191274416029    0.0964618966650077 C
   0.6419859501827168    0.1664951896499622    0.0981043600497758 C
   0.7894679160328125    0.9186559824651674    0.0958096469871131 C
   0.8311691936986501    0.6518926882087260    0.0959302196072601 C
   0.8295078533211959    0.3541140588348302    0.0974990527923004 C
   0.6435348739189370    0.8359326673833108    0.0962164967807218 C
   0.3212409566352807    0.3302594722591184    0.0991973698937094 C
   0.9061941436325727    0.5029752314098058    0.0968077413540273 N
   0.3178418108056590    0.6775248336813937    0.1009573622440467 N
   0.6679578120347075    0.3322412676796971    0.1006243473103335 N
   0.6710527325623069    0.6730750446623762    0.0964797296272767 N
   0.1970483269682191    0.9162529092299372    0.0958158391846882 N
   0.4901436670723203    0.4984626682761208    0.1143032118190401 Ta
