Title
1.0
   4.9440799999999996    0.0000000000000000    0.0000000000000000
   0.0000000000000000   17.1295089999999988    0.0000000000000000
   0.0000000000000000    0.0000000000000000   20.0000000000000000
C N Ni
25 5 1
direct
   0.0009226273016251    0.1072467663478520    0.2981020279066468 C
   0.2503553953637702    0.1502197077364304    0.2986841868525394 C
   0.2503105612458406    0.2355504862316601    0.3000265487519389 C
  -0.0000614235300595    0.2778292957534748    0.3006966473182577 C
   0.0003975695099180    0.5972877877575279    0.3008437364911261 C
   0.2503453706191480    0.7245779030043878    0.2990244111307883 C
   0.0015321589862794    0.8518375113502169    0.2975024851662008 C
   0.2503830566713059    0.8946422373575883    0.2972547535920058 C
   0.2503569020142377    0.9797049012454896    0.2971640713645828 C
   0.0018047449390349    0.7666451851239608    0.2984311163674510 C
   0.4997803945800722    0.1072438222354943    0.2980999127915570 C
   0.7503483997561300    0.1500523067097210    0.2986724867053530 C
   0.7503156939719127    0.2343114204514471    0.2999543149545789 C
   0.5001500958849195    0.0223632189274845    0.2973424917408454 C
   0.7502327691772678    0.3971058902140236    0.3021643162828079 C
   0.7502460871278502    0.4795749058392894    0.3024027524308033 C
   0.5006559982631472    0.2778270042118915    0.3007123657653856 C
   0.5002197520457677    0.5972926716421304    0.3008590399221754 C
   0.7503454075836523    0.7247138602673191    0.2989655569032482 C
   0.4992607956943028    0.8518490047900084    0.2975089532960436 C
   0.7504068070569992    0.8944474580940099    0.2971981554387123 C
   0.7503789311834412    0.9793569146815352    0.2971175222054577 C
   0.4989042434099365    0.7666513240224889    0.2984370208519754 C
   0.7503189011642813    0.6415095275865434    0.3001203331123886 C
   0.0005851407228082    0.0223707395902769    0.2973407155617568 C
   0.5054042091841161    0.5182791437421953    0.3020928555248221 N
   0.9950880876405970    0.5182756668863233    0.3020582887865567 N
   0.5079961876410279    0.3583442045074766    0.3019742849036600 N
  -0.0075178557904167    0.3583431615659191    0.3019500932967045 N
   0.2503188181842947    0.6386469757635376    0.3002621787440615 N
   0.2502211723967928    0.4372409963622909    0.3020963758395200 Ni
