Title
1.0
   4.9440799999999996    0.0000000000000000    0.0000000000000000
   0.0000000000000000    8.5647549999999999    0.0000000000000000
   0.0000000000000000    0.0000000000000000   20.0000000000000000
C N Pd
14 1 1
direct
  -0.0011087757037347    0.2899127518330636    0.0934376701684555 C
   0.2500000000000000    0.0432338293052534    0.0886514291632632 C
  -0.0002387139278531    0.7939654703981507    0.0994319350226129 C
   0.0007309437915842    0.9602821154399300    0.0883875260117934 C
   0.7500000000000000    0.2055087166402899    0.0854627101586224 C
   0.5011087757037346    0.2899127518330636    0.0934376701684555 C
   0.7500000000000000    0.0408843102852108    0.0835343050819296 C
   0.7500000000000000    0.7097644871569806    0.1007611640555457 C
   0.5002387139278529    0.7939654703981507    0.0994319350226129 C
   0.7500000000000000    0.5417422386869903    0.1031605171734124 C
   0.4992690562084157    0.9602821154399300    0.0883875260117934 C
   0.5132885822898693    0.4498861249554275    0.1058365544140501 C
  -0.0132885822898693    0.4498861249554275    0.1058365544140501 C
   0.2500000000000000    0.7242481381557961    0.1135303289151734 C
   0.2500000000000000    0.2071289790532957    0.0910433215475200 N
   0.2500000000000000    0.5393963754630395    0.1721808526707193 Pd
