Title
1.0
   4.9440799999999996    0.0000000000000000    0.0000000000000000
   0.0000000000000000   17.1295089999999988    0.0000000000000000
   0.0000000000000000    0.0000000000000000   20.0000000000000000
C N Ir
29 2 1
direct
   0.0014435437122863    0.1041784869491436    0.2841123620805565 C
   0.2519377984741118    0.1458016946921655    0.2872366581124877 C
   0.2533970898397781    0.2286526916379266    0.2957545377048251 C
   0.0063047439304177    0.3516090061898681    0.3141745353338608 C
   0.0029447440816183    0.2698291147372047    0.3002375568668999 C
  -0.0085986090326259    0.6050298638868198    0.3079120442732760 C
   0.2464882537316456    0.7283656994661530    0.2944144936709743 C
  -0.0011809595913717    0.8537494328733058    0.2835252115735189 C
   0.2488627267884233    0.8956384710408766    0.2821874233222425 C
   0.2500973016585881    0.9789953385279061    0.2808602426475474 C
  -0.0024363625491139    0.7705077365556270    0.2889036374825530 C
   0.5015717905614253    0.1041503414869318    0.2842368133161524 C
   0.7517667494018867    0.1458254236186277    0.2865017576434837 C
   0.7530336344396253    0.2288253182309364    0.2940631750705425 C
   0.5005609439360091    0.0207525464843251    0.2812276556364943 C
   0.5038457599771221    0.3517879202541817    0.3152640416367084 C
   0.7555704740029876    0.3961451220814364    0.3189521021408704 C
   0.7517270900302293    0.4824259522457920    0.3232243330346152 C
   0.5042464940636679    0.2699196657637319    0.3005343604678428 C
   0.4986916516272903    0.6061916498769009    0.3150826463362402 C
   0.7468781682441963    0.7296895811686248    0.2928592972451031 C
   0.4981502410393054    0.8537702519043845    0.2840687611800026 C
   0.7488998675980423    0.8953826672830919    0.2819888638569185 C
   0.7500948781226742    0.9789539890363812    0.2806785625729209 C
   0.4967023421723689    0.7705958798581803    0.2900982420239929 C
   0.7452019576178275    0.6471593364539121    0.3032212508358157 C
   0.2455979098406431    0.6459531426792021    0.3061861444480862 C
   0.0003114008053363    0.0207809874044304    0.2810677794453383 C
   0.5195177506346358    0.5270784792889603    0.3379398802925180 C
   0.9875242891194358    0.5247769746616869    0.3125626438627211 N
   0.2554924381760374    0.3860560933826462    0.3269861110138443 N
   0.2321768975455021    0.4799721402786311    0.3865018748709977 Ir
