Title
1.0
   8.5490480000000009    0.0000000000000000    0.0000000000000000
   0.0000000000000000    8.5490480000000009    0.0000000000000000
   0.0000000000000000    0.0000000000000000   20.0000000000000000
C N Pd
20 4 1
direct
   0.9099237890843798    0.2068714824911989    0.0977812528335380 C
   0.9119924261260929    0.8016970852474963    0.0977403834379033 C
   0.1996252151264121    0.0820107113665161    0.0980101406159515 C
   0.0745987557822494    0.2033228545088461    0.0979992583323972 C
   0.1559663115449355    0.6503961165826229    0.0980090455752900 C
   0.0739350406599320    0.5025407129053495    0.0980432178775637 C
   0.1562327973546341    0.3556657820961508    0.0980839386063993 C
   0.0789685181312672    0.8000178096327706    0.0978768282514006 C
   0.3468234911971310    0.1636884040575047    0.0979993574814692 C
   0.4942023642583850    0.9152703423945034    0.0979751242639181 C
   0.3468033443890409    0.8337447765441075    0.0981268061238524 C
   0.7869872281125598    0.0848637015260082    0.0976248898040126 C
   0.6390728336288737    0.1645855170028888    0.0977320291673858 C
   0.7907410159095332    0.9193334524527754    0.0977033769646317 C
   0.8287695404613268    0.6525992958418090    0.0979457953231046 C
   0.8241046559305027    0.3574592219793850    0.0978625939286992 C
   0.6428828192034327    0.8358465679554232    0.0979192075501842 C
   0.3241878708598541    0.3330171954200775    0.0980473665887593 C
   0.3226141736413439    0.6702531870625273    0.0981506841766566 C
   0.6595276851977713    0.3339806682517676    0.0978323005152850 C
   0.4952063725167958    0.0835290871225181    0.0979290954427239 N
   0.9054245355983326    0.5043450135171392    0.0980152323285407 N
   0.6689519926921339    0.6740715802673963    0.0981012415655671 N
   0.1969998670482560    0.9169308235259438    0.0980699576241427 N
   0.4908693555448170    0.4987486102472871    0.0981258756206058 Pd
