Title
1.0
   4.9440799999999996    0.0000000000000000    0.0000000000000000
   0.0000000000000000    8.5647549999999999    0.0000000000000000
   0.0000000000000000    0.0000000000000000   20.0000000000000000
C N Cu
12 2 1
direct
   0.2492190668241814    0.2094772174199107    0.1004141441238784 C
  -0.0025611545357186    0.2969499929309974    0.1005516675860686 C
   0.2507480168419520    0.0400692621948154    0.1004208376276318 C
   0.0022458103181420    0.9554207420477551    0.1003776402972393 C
   0.7484391970553728    0.2095796058719352    0.1004124914247132 C
   0.4977353751646394    0.2941019546828280    0.1003892907353654 C
   0.7516148626047675    0.0399834235822943    0.1004204644413230 C
   0.7525023474046705    0.7117611492875164    0.1007245078018119 C
   0.7475069413697324    0.5377908322685019    0.1007250642660777 C
   0.5025575925754356    0.9526228809789167    0.1005803820766036 C
   0.5056414019135307    0.4600368296383714    0.1004136666020956 C
  -0.0056230641423888    0.7895152833263289    0.1003655907404252 C
  -0.0102473659996973    0.4595163286306121    0.1008156071707305 N
   0.5102664867903640    0.7900618506208451    0.1008638413612015 N
   0.2499544858150164    0.6247936465183744    0.1005048037448378 Cu
