Title
1.0
   4.9440799999999996    0.0000000000000000    0.0000000000000000
   0.0000000000000000   17.1295089999999988    0.0000000000000000
   0.0000000000000000    0.0000000000000000   20.0000000000000000
C N Au
30 1 1
direct
  -0.0001399048223053    0.1031371660358541    0.2750523489752921 C
   0.2498800609173275    0.1446629680845035    0.2766940009811703 C
   0.2498868054619481    0.2278979188284720    0.2834056599213361 C
   0.0069087690166872    0.3514770190373484    0.3017851882040792 C
  -0.0002328349677671    0.2690253063591105    0.2884369058732042 C
  -0.0052014253969294    0.6074717678798521    0.3271585776045070 C
   0.2499270992511843    0.7291594401180370    0.3046727973096373 C
   0.0005218205789862    0.8534671160944913    0.2863454773770399 C
   0.2498901949155552    0.8950565625811674    0.2823841563199080 C
   0.2498803140540736    0.9781355635942552    0.2765321820129619 C
   0.0009249513161495    0.7709984315288723    0.2968599691198350 C
   0.4998950898894735    0.1031356886454251    0.2750500493590524 C
   0.7498757626450830    0.1448159525808333    0.2768355627672363 C
   0.7498809344548265    0.2278816561743273    0.2836425962093109 C
   0.5000117244970410    0.0196716510028532    0.2749612633983136 C
   0.4928737722617944    0.3514778088963853    0.3017902043754133 C
   0.7499036041772849    0.3938047631674178    0.3108051496202802 C
   0.7499123975277825    0.4756905833314887    0.3270277095917929 C
   0.5000019256444187    0.2690290509299521    0.2884376596179669 C
   0.5050614428856095    0.6074770771106441    0.3271643431457859 C
   0.7499257016216945    0.7307522202889840    0.3020845259277884 C
   0.4992755467238644    0.8534654481484482    0.2863412145406937 C
   0.7498932090880227    0.8946883121747811    0.2819597479430692 C
   0.7498771068783674    0.9779187973105541    0.2763675314343035 C
   0.4989245347388284    0.7709993350522842    0.2968580934898054 C
   0.7499367798242395    0.6499571897471271    0.3171647328530839 C
   0.2499324630360093    0.6474214090165474    0.3207243226309995 C
  -0.0002628786459753    0.0196699599147667    0.2749650021976904 C
   0.5291522970368708    0.5264849187032890    0.3403453890639022 C
   0.9706829884748126    0.5264803420210707    0.3403473627562066 C
   0.2498888925397086    0.3886045049292812    0.3084550783662091 N
   0.2499338543753398    0.4886350707115664    0.4119101970120752 Au
