Title
1.0
   8.5490480000000009    0.0000000000000000    0.0000000000000000
   0.0000000000000000    8.5490480000000009    0.0000000000000000
   0.0000000000000000    0.0000000000000000   20.0000000000000000
C N Mo
21 3 1
direct
   0.9088502648338568    0.2047163852745137    0.0951124491693922 C
   0.9038342115604429    0.5027679038476579    0.0966668459382811 C
   0.9114681218112689    0.8023677378474308    0.0952152283510269 C
   0.1986375706134243    0.0830331916773612    0.0950059428610936 C
   0.0754226014852594    0.2033345204005259    0.0950711776499414 C
   0.1557887448111307    0.6488816219888688    0.0964153605695968 C
   0.0726901653503920    0.5013192120174976    0.0964185514047631 C
   0.1544228640250250    0.3542307958506603    0.0968380806937745 C
   0.0787425751163242    0.7981036230864318    0.0949725639416124 C
   0.4942404362464005    0.0864385570428823    0.0964970094220257 C
   0.3463315079293247    0.1641200228117236    0.0967751730949884 C
   0.4937962303195191    0.9172248227807096    0.0965131656969161 C
   0.3467693537758248    0.8363882929361031    0.0967997879349511 C
   0.7890008209822963    0.0861436547512402    0.0951229312971065 C
   0.6417294739980516    0.1661842124361430    0.0967737443112908 C
   0.7900411339648085    0.9197766166368097    0.0952080281247994 C
   0.8283777450349972    0.6530507738284738    0.0970171548727889 C
   0.8261318436357674    0.3531681445485302    0.0968188417573124 C
   0.6427790776383855    0.8378957413435197    0.0969553240437413 C
   0.3219026422554054    0.3326804027927873    0.1013942446731683 C
   0.3224650167388049    0.6709464985593797    0.0999542839894149 C
   0.6653849192762817    0.3281746713049046    0.0995978164310381 N
   0.6676229706897652    0.6770116687471304    0.0998295205750785 N
   0.1993201395881259    0.9171847357778903    0.0949465232537302 N
   0.4896615683191099    0.4996461917108438    0.1217852499421405 Mo
