Title
1.0
   9.8694509999999998    0.0000000000000000    0.0000000000000000
   0.0000000000000000    8.5490480000000009    0.0000000000000000
   0.0000000000000000    0.0000000000000000   20.0000000000000000
C N W
29 2 1
direct
   0.0565463479651539    0.0904935706199305    0.0819467931626228 C
   0.9313084225092214    0.1733958336250523    0.0855541166889687 C
   0.0567457536080567    0.9229522321553082    0.0810783574196030 C
   0.9307832916422778    0.3401476351218141    0.0902864086555413 C
   0.0560495508703246    0.5892111001765866    0.0856305107891320 C
   0.9322006758381248    0.6725204034118252    0.0884570883026582 C
   0.0569705576386550    0.4231248275385362    0.0881954395280772 C
   0.9312282294845891    0.8398759628181961    0.0843697166289986 C
   0.3056939651204287    0.0886265080078009    0.0843345497451127 C
   0.1823093796096236    0.1742707720465231    0.0841629836994938 C
   0.3070494962851429    0.9231917321800653    0.0851776665879602 C
   0.1823135676827645    0.3402257654360756    0.0888960410586655 C
   0.3044635415950152    0.5895888554713735    0.0980299053929631 C
   0.1816224111123495    0.6711808131767861    0.0854817315580246 C
   0.1820984723945061    0.8381802427186991    0.0829359919811857 C
   0.5555143028717870    0.0873619062130313    0.0942751986160271 C
   0.4300726911752706    0.1704331173925115    0.0913917336928181 C
   0.4295950212907192    0.3351379486081473    0.1019010091080133 C
   0.4291510487644009    0.8401910434033751    0.0983737473521898 C
   0.8070517129234515    0.0897644948270724    0.0866171786137497 C
   0.6813002775959801    0.1699050032926423    0.0942219728789312 C
   0.8060189115959929    0.9243241554228073    0.0865995578075624 C
   0.6804992420736165    0.3339547190562927    0.1051905908542208 C
   0.8092164634835936    0.5913205803617314    0.1020968528757784 C
   0.8056771872673665    0.4227755174665366    0.1006141949915641 C
   0.6825913228602152    0.8424983710208933    0.0992254031195381 C
   0.4207523210369252    0.6794722772708244    0.1167466044966176 C
   0.5528968100190669    0.4061316549514215    0.1211598181794429 C
   0.6921740218718283    0.6838468044634460    0.1180648894242560 C
   0.5554785187643319    0.9221005421507460    0.0979859545853114 N
   0.3061785143248564    0.4227046179688356    0.0971497240020917 N
   0.5580869687243684    0.5913369916251134    0.1795232682028962 W
