Title
1.0
   4.9440799999999996    0.0000000000000000    0.0000000000000000
   0.0000000000000000   17.1295089999999988    0.0000000000000000
   0.0000000000000000    0.0000000000000000   20.0000000000000000
C N Ir
28 2 1
direct
  -0.0084964066129371    0.1056037128604888    0.2952548004486565 C
   0.2391301512262952    0.1481370655814787    0.2960937745601209 C
   0.2340892438956959    0.2321121460843616    0.2994393676177432 C
  -0.0182068437288585    0.2738623990158562    0.3045524334395765 C
   0.0183384314201045    0.6011072533522203    0.2971054072970971 C
   0.2615071825730173    0.7268046409730805    0.2964401808735054 C
   0.0046452617582560    0.8532068575417785    0.2938970780309099 C
   0.2528528415342258    0.8954718926029258    0.2940115898546080 C
   0.2478359342398779    0.9794702472420482    0.2938942872769217 C
   0.0096818552618287    0.7690895876761125    0.2945655808888786 C
   0.4909873253110549    0.1058425155862271    0.2942076697442368 C
   0.7400921476540820    0.1476641449859443    0.2950547613794244 C
   0.7341156741606683    0.2316816880728286    0.2975198291111529 C
   0.4960400438861065    0.0217296977714366    0.2936473320799858 C
   0.7418438269299352    0.3938958467075332    0.3074106952203884 C
   0.7587394963190516    0.4810156661549661    0.3074937910346990 C
   0.4822779863181599    0.2738384230145000    0.2968809837633835 C
   0.5188359299676975    0.6010725474088519    0.3047918853414519 C
   0.7605881716965803    0.7272555769036109    0.2953992994273207 C
   0.5043044932357168    0.8532851272346037    0.2943698962673000 C
   0.7528834683250683    0.8953916788214953    0.2937465580143820 C
   0.7477940650845999    0.9795286000662828    0.2936139646195651 C
   0.5091973359940405    0.7693066341642222    0.2956139335054841 C
   0.7664666911381889    0.6432478441889350    0.2978085086361405 C
   0.2665195206291275    0.6428213334609694    0.2997095223915346 C
  -0.0036198086752770    0.0216318094156901    0.2941085065679803 C
   0.0026625309732093    0.5177241407387720    0.2974154373782479 C
   0.4979867268611718    0.3571967968678459    0.2972937949765664 C
   0.5266303411199930    0.5216834227695851    0.3172423111143468 N
  -0.0259902745024942    0.3532228597494886    0.3170493068791446 N
   0.2502736560058157    0.4374398429858575    0.3294275122591976 Ir
