Title
1.0
   9.8694509999999998    0.0000000000000000    0.0000000000000000
   0.0000000000000000    8.5490480000000009    0.0000000000000000
   0.0000000000000000    0.0000000000000000   20.0000000000000000
C N Ir
29 2 1
direct
   0.0563655149735119    0.0907632352063656    0.0842360599138583 C
   0.9306744997154052    0.1727547826543158    0.0877370984782125 C
   0.0556906804798295    0.9238634187845050    0.0835846236783529 C
   0.9305211114791426    0.3402156711118424    0.0927571541425186 C
   0.0563143507498395    0.5893853580456716    0.0877385166409248 C
   0.9316029222329246    0.6726520537388518    0.0919910242291053 C
   0.0566631745129424    0.4235412267824755    0.0890395319649894 C
   0.9306445353965244    0.8391668790921181    0.0873909556660247 C
   0.3057462150479874    0.0905020474388414    0.0863004109352461 C
   0.1819346483994523    0.1744298375923988    0.0860708167558468 C
   0.3058073622161275    0.9245117374723015    0.0855077618843495 C
   0.1831547988003341    0.3423596137792049    0.0890585788683259 C
   0.3061594697320048    0.5939581571766323    0.0928677327963856 C
   0.1809251281367212    0.6738414530196019    0.0861308794745414 C
   0.3084811456590217    0.4255569825551588    0.0954790922316487 C
   0.1806694913813089    0.8404732358338602    0.0841008883788643 C
   0.5555395330186581    0.0852719692720954    0.0955928651517918 C
   0.4319504216966509    0.1698727577846079    0.0932982389248622 C
   0.4327119977028099    0.3358561808986033    0.1031993251749539 C
   0.5563162546233741    0.4041054564533147    0.1235583599200124 C
   0.4283556573030628    0.8393906702232529    0.0926575732295887 C
   0.8068221567629201    0.0882694662170298    0.0887091036946085 C
   0.6810101949599024    0.1679608491463578    0.0966391827055539 C
   0.8052252704321101    0.9220035733003503    0.0886185526847524 C
   0.6821525330838677    0.3328558757422940    0.1087397298145954 C
   0.8092018576991346    0.5904855644568423    0.1062822943259751 C
   0.6919522749079907    0.6821561854227102    0.1214061489832537 C
   0.8071454444837268    0.4215103392284799    0.1045369958269813 C
   0.6818179004406030    0.8383783986382534    0.0999521276102242 C
   0.4247764115989168    0.6814937818562279    0.1000058945617990 N
   0.5541983649987083    0.9191320333305149    0.0962882712328105 N
   0.5491076773744917    0.5935272077449093    0.1741992101190876 Ir
