Title
1.0
   4.9440799999999996    0.0000000000000000    0.0000000000000000
   0.0000000000000000    8.5647549999999999    0.0000000000000000
   0.0000000000000000    0.0000000000000000   20.0000000000000000
C N Sc
11 3 1
direct
   0.2496285546304149    0.2087905759715728    0.0970848165066800 C
  -0.0012929481385442    0.2939219553089555    0.0947617086592313 C
   0.2511454852117268    0.0374280226355225    0.0960928560722770 C
  -0.0000592152434114    0.9549223386451070    0.0928783491814010 C
   0.7496350219621094    0.2079871947602671    0.0937748629360263 C
   0.4999334842352011    0.2942135147609261    0.0993770322610066 C
   0.7517155304460337    0.0411433514610189    0.0930375063758626 C
   0.7559347584325312    0.7138914030109741    0.0991222798580686 C
   0.7539524809533347    0.5391409491099237    0.1009801819374214 C
   0.5042933516840242    0.9533219875472750    0.0979133738744442 C
   0.5077567261555794    0.4590190495038142    0.1086002876961898 C
  -0.0041240657907405    0.4563805581648670    0.0949738596255998 N
  -0.0070347366214417    0.7934343299997905    0.0913270309095288 N
   0.5144128234978991    0.7926191587747937    0.1061383647530562 N
   0.2241027485852842    0.6254666103451936    0.1419174893532097 Sc
