Title
1.0
   9.8694509999999998    0.0000000000000000    0.0000000000000000
   0.0000000000000000    8.5490480000000009    0.0000000000000000
   0.0000000000000000    0.0000000000000000   20.0000000000000000
C N Ir
25 6 1
direct
   0.0562514841328337    0.0933645113402412    0.0908807625732910 C
   0.9298496740782792    0.1757941884766350    0.0914901090817264 C
   0.0562398987513959    0.9246746700856775    0.0906986400986883 C
   0.9292340546691110    0.3421887650467068    0.0928227142849634 C
   0.0562361794089945    0.5905974444247681    0.0912278528867167 C
   0.9314901974257674    0.6722662048033556    0.0917932767753786 C
   0.0562285467066936    0.4237842015375383    0.0924796095605264 C
   0.9312433209864182    0.8401830273540666    0.0912664482081986 C
   0.3058802077054666    0.0894595017620803    0.0904452996453522 C
   0.1826417663776922    0.1757419571258679    0.0912270552366962 C
   0.3065606658996423    0.9236035146583004    0.0909143342559516 C
   0.1831994141668795    0.3421520424272784    0.0926582679664088 C
   0.3078095714226051    0.5937528688154993    0.0948423835778840 C
   0.1810196734045676    0.6722462551622305    0.0916886155957803 C
   0.1812573770417131    0.8402042889888917    0.0910470832952604 C
   0.5562260571344387    0.0846475051345351    0.0941044773811393 C
   0.4317980887776028    0.1700322426187943    0.0932016478388121 C
   0.4349979217392999    0.3361488651990107    0.0978140550359779 C
   0.4285141746680666    0.8354503582849967    0.0938498664125007 C
   0.8066484907153760    0.0894847577860780    0.0908988647631830 C
   0.6807020274563145    0.1700381401333286    0.0936468813606638 C
   0.8059951241009364    0.9236582280505997    0.0913201493874187 C
   0.6774631117948875    0.3362003673768438    0.0981580048171334 C
   0.8047337731833173    0.5937504764579086    0.0951556569675525 C
   0.6840506500163149    0.8355145089877690    0.0942613089091280 C
   0.4252880292073355    0.6766526090405564    0.0995012490473255 N
   0.5561456558592690    0.4112905971442865    0.1081781546570949 N
   0.6873842890418420    0.6767463522540009    0.1001452291769970 N
   0.5562531185201023    0.9158163327214111    0.0937220852655871 N
   0.3112128649000226    0.4251781305278843    0.0941659414006881 N
   0.8012824981919721    0.4252406966112807    0.0944837618200049 N
   0.5558010925148478    0.5843823896615781    0.1775852127159866 Ir
