Title
1.0
   9.8694509999999998    0.0000000000000000    0.0000000000000000
   0.0000000000000000    8.5490480000000009    0.0000000000000000
   0.0000000000000000    0.0000000000000000   20.0000000000000000
C N Sc
26 5 1
direct
   0.0544156845013421    0.0925340696696120    0.0970081923269743 C
   0.9283602289174357    0.1740196436512837    0.0963656329963248 C
   0.0544141000277523    0.9242647315469402    0.0965961757387382 C
   0.9277164153502263    0.3408380083952691    0.0936876623815142 C
   0.0543673052563341    0.5903496628354372    0.0953576110734483 C
   0.9310134800115294    0.6730387179084270    0.0905260843683165 C
   0.0553959258515065    0.4229525431895940    0.0952898615047032 C
   0.9297487689924584    0.8412963613730595    0.0942325659825492 C
   0.3030437372510917    0.0887809999409848    0.0940492256697448 C
   0.1803323714233269    0.1757800702790455    0.0964494078273535 C
   0.3032611493488533    0.9231013234699423    0.0962374808684173 C
   0.1811563854497196    0.3421206533040114    0.0977521074686644 C
   0.3071777756769808    0.5938789212925605    0.1050148095949844 C
   0.1809242166630453    0.6715183984118894    0.0999516022312450 C
   0.1793085819339010    0.8395577824324983    0.0985799994780032 C
   0.5522898742689836    0.0833228862041548    0.0925637766661296 C
   0.4282166793516809    0.1687964908267413    0.0927498820698358 C
   0.4312499965102041    0.3362563468881226    0.0951236136378596 C
   0.4266116407336850    0.8372584416914607    0.0999395824130136 C
   0.8042624146009328    0.0864858380209574    0.0966704943603141 C
   0.6775853886947810    0.1661507726229492    0.0934212177054454 C
   0.8041688252384589    0.9215787593844489    0.0978725369629787 C
   0.6741309447455899    0.3325273799660609    0.0904106044057524 C
   0.8045146375927076    0.5948564644945200    0.0786601605461668 C
   0.7989239415980988    0.4253425983546661    0.0875063384905012 C
   0.6796527170709936    0.8296150008201716    0.0990882523474425 C
   0.4263517371236233    0.6795329116220871    0.1137364957268903 N
   0.5508580361242422    0.4105970329795371    0.0942435063370238 N
   0.6864038291931351    0.6824421918333720    0.0619531351384724 N
   0.5507378493715097    0.9165431873567785    0.0934914937373509 N
   0.3098987795900356    0.4253671110240040    0.1005876992147907 N
   0.6231455815358438    0.5995406982094170    0.1505577907290664 Sc
