Title
1.0
   4.9440799999999996    0.0000000000000000    0.0000000000000000
   0.0000000000000000   17.1295089999999988    0.0000000000000000
   0.0000000000000000    0.0000000000000000   20.0000000000000000
C W
31 1
direct
   0.0003927079104779    0.1043730674071917    0.2776306643118477 C
   0.2501544022300441    0.1459955205248602    0.2828181880988034 C
   0.2500703142044304    0.2281032574466098    0.2963829016885290 C
  -0.0025444137009742    0.3490705927956112    0.3233247757604269 C
  -0.0017138044932755    0.2687017425449677    0.3035460567056210 C
  -0.0029998250207128    0.6082681173316453    0.3168198080168868 C
   0.2498871063571498    0.7297117927540476    0.2917465127708765 C
   0.0002654556417404    0.8540532703299674    0.2755877387376188 C
   0.2500495225870908    0.8958061557386848    0.2729827048266930 C
   0.2501494798638804    0.9792971318437272    0.2711821064535759 C
   0.0003341482244288    0.7711240978397815    0.2846245623173924 C
   0.4999344918472606    0.1043661387098899    0.2776433385174205 C
   0.7501382032078182    0.1457194788008948    0.2818612925477658 C
   0.7500460910940293    0.2277641652291119    0.2943100150808477 C
   0.5000726533865412    0.0210986262238881    0.2720491325127594 C
   0.5022935047866005    0.3490491826350996    0.3234035066130093 C
   0.7498162191348066    0.3937028291592420    0.3283561024589867 C
   0.7495583626850152    0.4791969117456938    0.3333381686565705 C
   0.5017624756277421    0.2687003082821283    0.3035978767979773 C
   0.5024574974550521    0.6082673679578675    0.3170237472114356 C
   0.7498193402294476    0.7303112604585882    0.2901606855833413 C
   0.4997705168083184    0.8540646387618924    0.2756083662470841 C
   0.7500578360599850    0.8956964109505829    0.2727752022219828 C
   0.7501614106765994    0.9792830984618862    0.2710057775577147 C
   0.4994398354324415    0.7711431524378434    0.2846605213390894 C
   0.7496815302467581    0.6487322861180359    0.3052587727887778 C
   0.2498061227806522    0.6482597315323995    0.3092253461035780 C
   0.0002587243242834    0.0211002644340655    0.2720361323083851 C
   0.5112542165370251    0.5280234149520565    0.3381369737219674 C
   0.9879745876897033    0.5279974039769536    0.3376827437716781 C
   0.2498175079132375    0.3832377598202834    0.3410984747585153 C
   0.2486567782724103    0.4783318227944967    0.3966868035127949 W
