Title
1.0
   4.9440799999999996    0.0000000000000000    0.0000000000000000
   0.0000000000000000   17.1295089999999988    0.0000000000000000
   0.0000000000000000    0.0000000000000000   20.0000000000000000
C N Pd
25 5 1
direct
   0.0010850127179947    0.1058303669895147    0.2981209277868699 C
   0.2502890787753694    0.1487517467908094    0.2987551435591680 C
   0.2503034072133873    0.2335567760627823    0.3001641272799697 C
  -0.0021968678291226    0.2749531710564961    0.3008410546411600 C
  -0.0016081354604097    0.6001115428598632    0.3008837119607631 C
   0.2503204742850986    0.7261241232407616    0.2989281090543181 C
   0.0016433809329693    0.8525851615904544    0.2973205044545211 C
   0.2503342296518393    0.8950063161724808    0.2970337320390232 C
   0.2503187197535258    0.9793620052539413    0.2969630213566886 C
   0.0023037197320091    0.7681069782282655    0.2983101967089105 C
   0.4995027897681616    0.1058248597745156    0.2981310375346397 C
   0.7502924657279135    0.1478914608136168    0.2987565100643715 C
   0.7502804359399038    0.2313059487138781    0.3001190902291007 C
   0.4999329298201217    0.0216006201987398    0.2972244837932807 C
   0.7503481596574926    0.3960310801926781    0.3022946740451463 C
   0.7503448741653264    0.4804187120072549    0.3024693022514749 C
   0.5027853573164884    0.2749594571031704    0.3008745123692391 C
   0.5022652453146920    0.6001099307093729    0.3009171417209051 C
   0.7503018209172051    0.7267473835131000    0.2988992576887759 C
   0.4990466965291049    0.8525845250917805    0.2973278703826204 C
   0.7503487105346214    0.8947701013149962    0.2970212277484783 C
   0.7503370705152889    0.9790160281668897    0.2969746465251921 C
   0.4983363692831968    0.7681124013371886    0.2983210908762743 C
   0.7503242115375510    0.6445856973384099    0.3001562607046674 C
   0.0007287511944099    0.0216034398793352    0.2972152619146088 C
   0.5120999643878181    0.5221730949053923    0.3022336919174399 N
   0.9885962578101803    0.5221728729878317    0.3021503303125400 N
   0.5148564792718505    0.3544999006369723    0.3021565310580044 N
  -0.0141867967813579    0.3545041347161724    0.3020534041470538 N
   0.2503425295228235    0.6407736396152963    0.3001868520898361 N
   0.2503296577945469    0.4372685227380335    0.3022562937849107 Pd
