Title
1.0
   8.5490480000000009    0.0000000000000000    0.0000000000000000
   0.0000000000000000    8.5490480000000009    0.0000000000000000
   0.0000000000000000    0.0000000000000000   20.0000000000000000
C N Ti
20 4 1
direct
   0.9091338947797213    0.2064332118740554    0.0958602194447317 C
   0.9115235050264652    0.8008951069893545    0.0960815117470887 C
   0.1975754874211639    0.0834481952639889    0.0961492047271190 C
   0.0755795002987217    0.2028966365690043    0.0959726733776300 C
   0.1544555732477048    0.6494170488217971    0.0973608611497460 C
   0.0722488014461213    0.5014256665602410    0.0971863011389373 C
   0.1526684242211339    0.3540301534029505    0.0972841422072238 C
   0.0790944447652430    0.7984830507191083    0.0960799429404296 C
   0.4951354593835218    0.0866002310933499    0.0976095975956759 C
   0.3453527349842779    0.1644243918993787    0.0975588006156291 C
   0.4948278575732913    0.9174883870508441    0.0974765536083492 C
   0.3461572110430352    0.8359019336880885    0.0974458632283028 C
   0.7887232865372029    0.0873504431101944    0.0964302695462727 C
   0.6428447553592794    0.1679604565326234    0.0977446491834555 C
   0.7897999567803178    0.9188289582470943    0.0964171364592398 C
   0.8292814503621367    0.6522150319323707    0.0969216674896766 C
   0.8279268262573837    0.3543158983243518    0.0967069080624461 C
   0.6436747344785744    0.8363513195715335    0.0975209756471644 C
   0.3210450981414576    0.3321835519342386    0.0994899275821576 C
   0.3225632239011475    0.6718419232275482    0.0991367707873748 C
   0.9047121572507468    0.5029439700810657    0.0968573705461898 N
   0.6677625811256864    0.3328217184709977    0.0987809497964520 N
   0.6692458171124929    0.6729045172251199    0.0985234277092063 N
   0.1980744581506727    0.9165653896513815    0.0960005661915801 N
   0.4860047603524915    0.4970628077593389    0.1111087092178943 Ti
