Title
1.0
   4.9440799999999996    0.0000000000000000    0.0000000000000000
   0.0000000000000000    8.5647549999999999    0.0000000000000000
   0.0000000000000000    0.0000000000000000   20.0000000000000000
C N Ir
14 1 1
direct
   0.2500000000000000    0.2063269190397825    0.0932978239339307 C
  -0.0023454458883705    0.2874778251112687    0.0981614970849773 C
   0.2500000000000000    0.0432307416860387    0.0857130236318419 C
   0.0008635656559172    0.7963558876778892    0.0956986362539819 C
  -0.0004975675480138    0.9594153207194462    0.0847067223554581 C
   0.7500000000000000    0.2062648727793154    0.0881736183368000 C
   0.5023454458883705    0.2874778251112687    0.0981614970849773 C
   0.7500000000000000    0.0408419989358950    0.0817471039927105 C
   0.7500000000000000    0.7100754555208475    0.1014186669631108 C
   0.4991364343440828    0.7963558876778892    0.0956986362539819 C
   0.7500000000000000    0.5406500468008764    0.1084602816017693 C
   0.5004975675480139    0.9594153207194462    0.0847067223554581 C
   0.5175973620304493    0.4469031845626515    0.1159400587604186 C
  -0.0175973620304493    0.4469031845626515    0.1159400587604186 C
   0.2500000000000000    0.7257032635146983    0.1063611199543886 N
   0.2500000000000000    0.5466022655800351    0.1683265326757838 Ir
