Title
1.0
   8.5490480000000009    0.0000000000000000    0.0000000000000000
   0.0000000000000000    8.5490480000000009    0.0000000000000000
   0.0000000000000000    0.0000000000000000   20.0000000000000000
C N Ta
21 3 1
direct
   0.9078768268943141    0.2052464648213949    0.0953850143358794 C
   0.9053136528789262    0.5032111557490317    0.0964067664426047 C
   0.9110292750027764    0.8024658961841538    0.0957179922894132 C
   0.1968833770923738    0.0830909121467743    0.0953041119223642 C
   0.0754096072941919    0.2023091436597366    0.0955677099464321 C
   0.1567387964922169    0.6489725707766146    0.0965900291259235 C
   0.0740763865622948    0.5012932450897819    0.0965513469640259 C
   0.1547568699230543    0.3536786396849319    0.0972029264131716 C
   0.0792296070377714    0.7982365100209803    0.0955003959949640 C
   0.4942177113244669    0.0865658187558269    0.0964521790434474 C
   0.3457028039114969    0.1632027055479790    0.0968551158116147 C
   0.4943260510322854    0.9176644634186696    0.0963450691579784 C
   0.3465412460926743    0.8372037484170679    0.0960926673027331 C
   0.7879326877731557    0.0870720095174423    0.0956341478951382 C
   0.6410167013691638    0.1669032810482024    0.0967593197586736 C
   0.7895027261550522    0.9195896005804419    0.0957375404160235 C
   0.8293048602383790    0.6527575810565615    0.0971563376352884 C
   0.8274011693126291    0.3537673364147784    0.0962541563949259 C
   0.6421805309225358    0.8377356489909353    0.0971771986071451 C
   0.3224427066261065    0.3307985274991874    0.1006539827314896 C
   0.3242551130298086    0.6728241555182765    0.0979444790060628 C
   0.6652865509802646    0.3307853466602811    0.0981441489805191 N
   0.6670709558355903    0.6751852728448543    0.0998673915957444 N
   0.1983864501616901    0.9164790246699541    0.0950212743983534 N
   0.4885293360567736    0.4977509409261623    0.1233836978300569 Ta
