Title
1.0
   4.9440799999999996    0.0000000000000000    0.0000000000000000
   0.0000000000000000   17.1295089999999988    0.0000000000000000
   0.0000000000000000    0.0000000000000000   20.0000000000000000
C N Co
28 2 1
direct
   0.0008141336968027    0.1061644563840168    0.2982773721669245 C
   0.2501605527215280    0.1490030086154555    0.2986255389346166 C
   0.2500328008194507    0.2334881444105791    0.3001211887882153 C
  -0.0026397642845434    0.2744803462909308    0.3027182414436134 C
   0.0005519904608980    0.6008004267316565    0.3023992776272121 C
   0.2503212958931750    0.7272489057740881    0.2987974077108906 C
   0.0002207321066456    0.8536394578771145    0.2974067284662626 C
   0.2503275798759981    0.8957770045277782    0.2970490768262834 C
   0.2502821760850928    0.9797700396414640    0.2970282518532629 C
   0.0001261784250834    0.7695809358609934    0.2984035002155209 C
   0.4996655574449354    0.1062041225003063    0.2976443473824503 C
   0.7503021737497417    0.1476982323579636    0.2984037134782157 C
   0.7502812500691481    0.2315602583735325    0.2996887807989642 C
   0.4999152677649245    0.0220680689788914    0.2970428913407663 C
   0.7500408520333077    0.3917817457442136    0.3022785546234651 C
   0.7501338256854574    0.4780604209406412    0.3024103174665569 C
   0.5028720796671806    0.2744566712988886    0.2986436861702780 C
   0.5002571776453927    0.6009135972280144    0.2993295508678541 C
   0.7504342280460350    0.7274408727853084    0.2987431060459906 C
   0.5004285970426762    0.8536171356665089    0.2971445824945060 C
   0.7502908913311190    0.8958139869730716    0.2970250635356794 C
   0.7502694976926183    0.9799866658994403    0.2969889924033752 C
   0.5006024383187843    0.7695423546458781    0.2979362357088902 C
   0.7505169103636538    0.6431993430840236    0.3000770194382893 C
   0.2503007609925849    0.6434779925730868    0.3001955245570165 C
   0.0006262702852976    0.0220426141733457    0.2973880546283084 C
   0.5018182246393299    0.5174508213725060    0.2983457418553300 C
  -0.0008023831179370    0.5173305817447246    0.3061013387034547 C
   0.5119088286085973    0.3550081583091527    0.2957712365094492 N
  -0.0116856797315032    0.3549700136455468    0.3084381440842749 N
   0.2516325556685267    0.4387656155908731    0.3046365338740354 Co
