Title
1.0
   8.5490480000000009    0.0000000000000000    0.0000000000000000
   0.0000000000000000    8.5490480000000009    0.0000000000000000
   0.0000000000000000    0.0000000000000000   20.0000000000000000
C N Zr
19 5 1
direct
   0.9067223329336126    0.2063589339821331    0.0939944329802028 C
   0.9123392249617223    0.8020773254753362    0.0948564231018593 C
   0.1956261764298906    0.0816174025983058    0.0949670487127105 C
   0.0748968749053732    0.2001478254222001    0.0953404767377652 C
   0.1577626151755803    0.6490178902549421    0.0949372005161158 C
   0.0772264506341932    0.4997013401387102    0.0968830140378362 C
   0.1551392086589162    0.3484825746700532    0.0983803140835084 C
   0.0802685098217954    0.7987319573454040    0.0937471302958060 C
   0.3422658669376705    0.1618080731381532    0.0976735193575824 C
   0.4939400599019081    0.9189344272428028    0.0969803203156364 C
   0.3461335666942219    0.8370432791294453    0.0949651424735763 C
   0.7871827371518635    0.0880875909870360    0.0939805499671702 C
   0.6374814039429151    0.1693713995165874    0.0951724330849585 C
   0.7909565601623600    0.9204757238004844    0.0953084752414201 C
   0.8324143451537180    0.6530593947853365    0.0977116682697162 C
   0.8265653132739451    0.3569510922976443    0.0951442737038523 C
   0.6441716242910267    0.8394414244910606    0.0984381733892108 C
   0.3238133369179559    0.6738885798365265    0.0947809169329462 C
   0.6602671037652893    0.3352831525576449    0.0954121881614856 C
   0.4922635755313999    0.0865490909633043    0.0964869796080485 N
   0.9089051834933474    0.5032612983053044    0.0965750072928676 N
   0.3193216262531979    0.3225354988139321    0.1018919121399738 N
   0.6714619908031501    0.6749283878090093    0.1021326794025824 N
   0.1965642148599192    0.9148713610999514    0.0935070622258002 N
   0.4917220973450131    0.5021649753387045    0.1344376579673481 Zr
