Title
1.0
   4.9440799999999996    0.0000000000000000    0.0000000000000000
   0.0000000000000000    8.5647549999999999    0.0000000000000000
   0.0000000000000000    0.0000000000000000   20.0000000000000000
C N Rh
11 4 1
direct
  -0.0051116348710939    0.2937110906057279    0.0922451518492592 C
   0.2500000000000000    0.0454302394951651    0.0901563750140110 C
   0.0049395238723414    0.7946216292022082    0.1005564525834923 C
   0.0009545632230234    0.9614210122786220    0.0908548439464600 C
   0.7500000000000000    0.2063302003077378    0.0882644554588725 C
   0.5051116348710936    0.2937110906057279    0.0922451518492592 C
   0.7500000000000000    0.0415029538252856    0.0868701040204051 C
   0.7500000000000000    0.7046730785154408    0.1018254695284015 C
   0.4950604761276585    0.7946216292022082    0.1005564525834923 C
   0.7500000000000000    0.5322355716586618    0.1013136639573555 C
   0.4990454367769765    0.9614210122786220    0.0908548439464600 C
   0.5103102272904450    0.4503736250555822    0.1003045456039523 N
  -0.0103102272904449    0.4503736250555822    0.1003045456039523 N
   0.2500000000000000    0.7248717749163709    0.1116591452685083 N
   0.2500000000000000    0.2135445447283267    0.0891843462761073 N
   0.2500000000000000    0.5311569222687308    0.1753164525100203 Rh
