Title
1.0
   9.8694509999999998    0.0000000000000000    0.0000000000000000
   0.0000000000000000    8.5490480000000009    0.0000000000000000
   0.0000000000000000    0.0000000000000000   20.0000000000000000
C N Cr
26 4 1
direct
   0.0559183998428923    0.0905678346470478    0.0905645919583981 C
   0.9310250486248418    0.1730007781921328    0.0917081848522532 C
   0.0576444131993945    0.9239032225939273    0.0907377381239156 C
   0.9333148640739668    0.3404553940630370    0.0907555772393851 C
   0.0570728507256424    0.5900904075616060    0.0877194193565368 C
   0.9337855063560653    0.6747486868806959    0.0907771493312520 C
   0.0573789075803397    0.4232205765359521    0.0877069718118409 C
   0.9325781625833593    0.8408169224728627    0.0919646355871970 C
   0.3063186970660575    0.0882092861470373    0.0952684889265323 C
   0.1807512524670325    0.1715292619513684    0.0911726788985655 C
   0.1808740138217830    0.3389062728524080    0.0897464276203172 C
   0.3030369509411868    0.5900432677227238    0.0943125769290381 C
   0.1806021441315032    0.6736835295084607    0.0894947260603412 C
   0.3040485139290657    0.4211291180671289    0.0951852396664662 C
   0.1812093342220583    0.8405445090619827    0.0911185763338937 C
   0.5551527444636061    0.0892221886976200    0.1031760796976696 C
   0.4286526100470818    0.1744088534724985    0.1015431320177483 C
   0.5543790605999115    0.9186835865802454    0.1026498048185638 C
   0.4275923384355166    0.8344897094951949    0.1000956314537927 C
   0.8054397565252256    0.0896589509915652    0.0957018888357249 C
   0.6816090005491565    0.1752468741783917    0.1018566406780738 C
   0.8064064899153832    0.9221912323018085    0.0957367849453568 C
   0.6871360108375744    0.3414323093077514    0.1059977598132526 C
   0.8112714805098961    0.5935212979899062    0.0973691923887262 C
   0.8102997784373174    0.4236762530207535    0.0972052033392634 C
   0.6834559274542711    0.8339195845612662    0.1016442788939265 C
   0.4230700475348589    0.3376616292359768    0.1049465300978086 N
   0.6910827046571598    0.6730639666187673    0.1056763059820360 N
   0.4210919307895518    0.6759998800173106    0.1021494704173385 N
   0.3063267145998256    0.9230077528815998    0.0945656043531392 N
   0.5546093450784827    0.5038418623909855    0.1224177095716825 Cr
