Title
1.0
   8.5490480000000009    0.0000000000000000    0.0000000000000000
   0.0000000000000000    8.5490480000000009    0.0000000000000000
   0.0000000000000000    0.0000000000000000   20.0000000000000000
C N W
22 2 1
direct
   0.9067189346476743    0.2077970102659467    0.0944145512183135 C
   0.9086882659212552    0.5058178014353546    0.0955520085775182 C
   0.9134455715538102    0.8036372739644867    0.0965027120984902 C
   0.1966331393364860    0.0807116550602075    0.0959826029710410 C
   0.0725342507674140    0.2021178376903069    0.0953611941322035 C
   0.1614934969685931    0.6473887278019064    0.0968099617489409 C
   0.0764562066942959    0.5016319943951133    0.0962802154496601 C
   0.1520652181622839    0.3519622103492426    0.0969785005313542 C
   0.0815428984110555    0.7967050084563970    0.0960799589080595 C
   0.4931297189674766    0.0848647781920786    0.0979824625471965 C
   0.3431068602557166    0.1589103525099271    0.0980709581055157 C
   0.4953894452531711    0.9167921410462022    0.0973591597848344 C
   0.3489646539772064    0.8368612551907990    0.0953878651448589 C
   0.7853317064022154    0.0891328665851008    0.0967405837793430 C
   0.6361951860750433    0.1695438899913523    0.0984390683092186 C
   0.7905740039722613    0.9222048704045330    0.0970186533120646 C
   0.8304493834697222    0.6546916124427687    0.0982245382548522 C
   0.8287677421962870    0.3594855863197631    0.0933484023717132 C
   0.6439302983521185    0.8371935690798441    0.0990654883079174 C
   0.3189087747201665    0.3272139072005619    0.1020614909053058 C
   0.3296942675033702    0.6728553830977593    0.0964830975736668 C
   0.6623766423182416    0.3409549320802667    0.0965809341718700 C
   0.6686898232701052    0.6759119434383924    0.1023347635382559 N
   0.1999889737033429    0.9151583886251451    0.0951127628239409 N
   0.4803365371006806    0.4852450043765572    0.1205330654338475 W
