Title
1.0
   8.5490480000000009    0.0000000000000000    0.0000000000000000
   0.0000000000000000    8.5490480000000009    0.0000000000000000
   0.0000000000000000    0.0000000000000000   20.0000000000000000
C N Ni
20 4 1
direct
   0.9095631750429986    0.2061815812283463    0.0975957155014907 C
   0.9115509866299835    0.8002222192397414    0.0976213437076149 C
   0.2002602036447130    0.0839419115432202    0.0978289201417128 C
   0.0756520210596002    0.2041793287546479    0.0977230863959006 C
   0.1559900424896472    0.6475213100019330    0.0977562327091212 C
   0.0711719627009634    0.5015801534612367    0.0977546526152111 C
   0.1544468557447599    0.3568334174534409    0.0977789949641939 C
   0.0794437722969816    0.7978730000047610    0.0977547946764510 C
   0.4958888682985916    0.0874225851056464    0.0977605563427201 C
   0.3479835879877250    0.1683591250048256    0.0978761261526926 C
   0.4953142714404474    0.9157922686794838    0.0977278796021371 C
   0.3492062339274821    0.8306165737032719    0.0978549336937470 C
   0.7890704670455219    0.0868484767959763    0.0975115897782824 C
   0.6423029445327842    0.1685779337891418    0.0976851098448253 C
   0.7899931665067003    0.9185611827193157    0.0975202129757787 C
   0.8254851973224783    0.6509167772030419    0.0977340956483334 C
   0.8229641142975049    0.3558438310782339    0.0977498189247823 C
   0.6427871170920159    0.8349419866430113    0.0976692508362619 C
   0.3234821167331336    0.3391369200281902    0.0978159553451101 C
   0.3244189115011181    0.6648530636264255    0.0977811908386668 C
   0.9020173129161232    0.5030163122479536    0.0978137239710537 N
   0.6643607097956176    0.3343850982932385    0.0978445959190086 N
   0.6657773531653087    0.6712055581912413    0.0978260632241836 N
   0.1999330437640653    0.9158067494921992    0.0979137807327009 N
   0.4863475640637263    0.5001726357114955    0.0978063754579923 Ni
