Title
1.0
   4.9440799999999996    0.0000000000000000    0.0000000000000000
   0.0000000000000000   17.1295089999999988    0.0000000000000000
   0.0000000000000000    0.0000000000000000   20.0000000000000000
C N Os
27 4 1
direct
  -0.0029342055587041    0.1045182870119777    0.2931014070138205 C
   0.2463308026887416    0.1465242635833285    0.2959874743118480 C
   0.2433781424390806    0.2297930631953104    0.3029257103846925 C
  -0.0089595213029615    0.3521375250434275    0.3169785697712272 C
  -0.0090089002380222    0.2711356209273037    0.3053314290804565 C
   0.0087714241762853    0.5999552651743971    0.2920315043208153 C
   0.2601251387822314    0.7257382341355361    0.2911368284398499 C
   0.0062961051604600    0.8527646324784734    0.2880185419166790 C
   0.2546346917878477    0.8949687226272786    0.2883380411965346 C
   0.2513466889950918    0.9786984249665017    0.2891737204484551 C
   0.0100312998687163    0.7688536880546574    0.2888876311716312 C
   0.4967739203881588    0.1043216379362698    0.2933085773743865 C
   0.7454486094177998    0.1466453363050992    0.2949081766779747 C
   0.7415851155891781    0.2297247017028539    0.3002472558329942 C
   0.5003669307122238    0.0207680416068018    0.2901527870254368 C
   0.4860778361262198    0.3546027707846865    0.3174336621196787 C
   0.7794443309541891    0.4835680910603440    0.3215784754484424 C
   0.4921001206413072    0.2722594758307640    0.3061649393939907 C
   0.5225064276292432    0.6023334363000119    0.3027818945022748 C
   0.7605116692201321    0.7277976382749056    0.2908886966380331 C
   0.5052401271812678    0.8526423630136444    0.2888704378239944 C
   0.7547997314028917    0.8947723102300396    0.2882219778465422 C
   0.7514361790486621    0.9785728071771773    0.2889598108516552 C
   0.5084623113080424    0.7688761881059109    0.2907394867113586 C
   0.7647623167759124    0.6445144087283260    0.2943812618434739 C
   0.2642004421181977    0.6412503533425984    0.2944215105865999 C
   0.0003378241096873    0.0208700941301273    0.2899489793879504 C
   0.5353334626813785    0.5272174081425723    0.3290595068897877 N
   0.9832609096934636    0.5174853341572692    0.2749274400062159 N
   0.2344382859291446    0.3899640756301478    0.3330727756773235 N
   0.7405183512503719    0.3961651821546922    0.3177751214134677 N
   0.1692064310237681    0.4991116181875543    0.3628113678923599 Os
