Title
1.0
   8.5490480000000009    0.0000000000000000    0.0000000000000000
   0.0000000000000000    8.5490480000000009    0.0000000000000000
   0.0000000000000000    0.0000000000000000   20.0000000000000000
C N Ni
20 4 1
direct
   0.9077596507993714    0.2093542609225539    0.0975652511317699 C
   0.9129150345508615    0.8001846802329020    0.0976844363250262 C
   0.1963276063322477    0.0828423800880741    0.0977480722509907 C
   0.0742890284252146    0.2022166189089873    0.0977387403605144 C
   0.1601956157122725    0.6467766881944728    0.0977703922004890 C
   0.0769213378911850    0.5014067629948883    0.0978300373677677 C
   0.1578878548684456    0.3526819521479582    0.0979360461853135 C
   0.0801760215335166    0.7974135323381825    0.0976875232942725 C
   0.4927350261890933    0.0871774638192355    0.0976713258406511 C
   0.3422309275146858    0.1666606587571959    0.0978645138490452 C
   0.4935571113206259    0.9156286866809791    0.0976607127163410 C
   0.3478632213736476    0.8318196564242890    0.0977202292460225 C
   0.7852655458590793    0.0873285175837127    0.0975087995435568 C
   0.6364333647863974    0.1700931262842019    0.0976014165707334 C
   0.7889720063373655    0.9200597699412764    0.0976138747444131 C
   0.8294303763572392    0.6505634506304505    0.0978007229619414 C
   0.8253434914519709    0.3595204967388125    0.0976590647108589 C
   0.6415490113232142    0.8340115837359848    0.0977453569525531 C
   0.3274002189529882    0.6665376130251169    0.0977901524473712 C
   0.6585090988163821    0.3413155419316921    0.0976738894100622 C
   0.9085801525239738    0.5042793707147188    0.0978164315144082 N
   0.3195412306629946    0.3306641436323630    0.0980674310803368 N
   0.6672878787158710    0.6698388576057216    0.0979164901285235 N
   0.1988778003538738    0.9147088588437445    0.0977089926556377 N
   0.4953633873474686    0.5017053278224988    0.0979250965113797 Ni
