Title
1.0
   4.9440799999999996    0.0000000000000000    0.0000000000000000
   0.0000000000000000   17.1295089999999988    0.0000000000000000
   0.0000000000000000    0.0000000000000000   20.0000000000000000
C N Fe
28 2 1
direct
  -0.0020073657435892    0.1055186715758449    0.2975250668438905 C
   0.2463312340061937    0.1482978019691966    0.2979484363661684 C
   0.2451444784279269    0.2322451791683835    0.2993186546355929 C
  -0.0054179833637680    0.2751877904293072    0.3006323244641312 C
   0.0047216009915117    0.6013298240056483    0.2995889843279297 C
   0.2542908494074114    0.7266325728922306    0.2982785586037552 C
   0.0016531582766774    0.8531425421638356    0.2972678824955037 C
   0.2510317948024354    0.8954919797395944    0.2972649260239917 C
   0.2497640513589413    0.9794437871199001    0.2971584706241699 C
   0.0030347593114489    0.7689716823836071    0.2975921182724561 C
   0.4976624747892500    0.1059703557018979    0.2972188590904025 C
   0.7483773993194466    0.1476541390981608    0.2973386921763694 C
   0.7465316591190885    0.2317626096636015    0.2980505143011900 C
   0.4990580494831437    0.0218242677816348    0.2970487451657219 C
   0.7467458130489834    0.3943379483227359    0.3016272773321912 C
   0.7532648468365581    0.4805610407080477    0.3020035368436043 C
   0.4958618007033960    0.2735138609966178    0.2984027710489767 C
   0.5059603317438143    0.5998400163067774    0.3007099426378904 C
   0.7523118778108542    0.7272733333960544    0.2977230701864454 C
   0.5013355097191980    0.8533653200677187    0.2973110120088854 C
   0.7510517379964031    0.8953888729615656    0.2971182947776576 C
   0.7495522180540447    0.9795591402164951    0.2970060375808949 C
   0.5026925904587974    0.7694008614860790    0.2977262250878267 C
   0.7541558542705086    0.6431720692111118    0.2986245663788502 C
   0.2553194042806960    0.6426953766358630    0.2997467463099430 C
  -0.0006384556815606    0.0215584649746106    0.2971761026980701 C
  -0.0017871658741122    0.5186425768075333    0.3014039957210100 C
   0.5021262087103610    0.3561328718969163    0.2991892669326365 C
   0.5105144669760209    0.5189385149526085    0.3036680274953708 N
  -0.0102816038232549    0.3561028205499956    0.3046289195252130 N
   0.2516454045831776    0.4373857068164220    0.3187619740432114 Fe
