Title
1.0
   4.9440799999999996    0.0000000000000000    0.0000000000000000
   0.0000000000000000   17.1295089999999988    0.0000000000000000
   0.0000000000000000    0.0000000000000000   20.0000000000000000
C N Nb
28 3 1
direct
  -0.0007513182917801    0.1039043174130609    0.2925422374696841 C
   0.2493034606752466    0.1455171910760605    0.2953880824352116 C
   0.2476828046181861    0.2285628619656328    0.3023188787933801 C
  -0.0025586154156324    0.3519904527052443    0.3141960094785146 C
  -0.0036559101452371    0.2699447517063759    0.3045420339127452 C
   0.0043130712633305    0.6001946210957709    0.2974497505047438 C
   0.2573600829682714    0.7268553368528389    0.2940279246195147 C
   0.0057262976543970    0.8529843101206848    0.2896831417020311 C
   0.2546138707629439    0.8949904705228670    0.2891847675203982 C
   0.2523748488734852    0.9785683621872749    0.2891373892358473 C
   0.0083168346940842    0.7695679295921829    0.2919514659152338 C
   0.4997710383619532    0.1037706735385783    0.2927559044007343 C
   0.7484628688242011    0.1457729815064867    0.2945436111645591 C
   0.7461060957628380    0.2290528583448916    0.3002463876353656 C
   0.5018777794998484    0.0202650192204951    0.2897981041817760 C
   0.4909197501794523    0.3538928910422514    0.3163634243802308 C
   0.7461042046078815    0.3970515192640980    0.3144968169691278 C
   0.7551819201674057    0.4820986462249244    0.3066894094971042 C
   0.4963895221447858    0.2708042921767347    0.3060255654473901 C
   0.5159963522220705    0.6047155422766357    0.3035901013062916 C
   0.7582027253155303    0.7285276385419654    0.2944295903684281 C
   0.5045572780243954    0.8530100189756404    0.2901912194943880 C
   0.7543791261692478    0.8947231822224823    0.2892071157044396 C
   0.7523308742543905    0.9783445557354926    0.2890109951709682 C
   0.5060223538704430    0.7692777317486148    0.2930689678999336 C
   0.7600811779274215    0.6458746394314242    0.2990086678197262 C
   0.2599158148281604    0.6421618186736979    0.2970708755714038 C
   0.0015061590240492    0.0204140378138708    0.2896487219529468 C
   0.5308362568978935    0.5256703828234957    0.3228298721063265 N
   0.9830996276232169    0.5190096342784499    0.2767419009302610 N
   0.2410927069535332    0.3895429373366027    0.3278533085114314 N
   0.1712639396839931    0.5014893935851645    0.3685727578998170 Nb
