Title
1.0
   4.9440799999999996    0.0000000000000000    0.0000000000000000
   0.0000000000000000    8.5647549999999999    0.0000000000000000
   0.0000000000000000    0.0000000000000000   20.0000000000000000
C N Hf
11 3 1
direct
   0.0027250968205006    0.2948632078571206    0.0969497002591047 C
   0.2459636756374036    0.0401312268519680    0.0954669404761522 C
  -0.0056811068137493    0.9557026696797019    0.0983188156421877 C
   0.7527631275112810    0.2072825885106726    0.0920400027998867 C
   0.5030410229606090    0.2935903599528007    0.0943206841475792 C
   0.7472833749388282    0.0408495129773637    0.0922186995051612 C
   0.7424079586905836    0.7102401879189963    0.0991666616185231 C
   0.7513155772740205    0.5369126448360264    0.1005523230814073 C
   0.4952597893355586    0.9576229624530377    0.0925449947092542 C
   0.4996240368914197    0.7911645285933863    0.0921001841835588 C
  -0.0004047237436731    0.4578520898965853    0.1052590053633353 C
   0.5061199338727222    0.4532070575025996    0.0979220151555157 N
  -0.0125453740092359    0.7926341028766393    0.1091649394860838 N
   0.2516153195552443    0.2107086480621247    0.0952857735697887 N
   0.2705122910784859    0.6289192120309786    0.1466692600024647 Hf
