Title
1.0
   8.5490480000000009    0.0000000000000000    0.0000000000000000
   0.0000000000000000    8.5490480000000009    0.0000000000000000
   0.0000000000000000    0.0000000000000000   20.0000000000000000
C N Zr
20 4 1
direct
   0.9089924096359764    0.2061987153328166    0.0940241452615951 C
   0.9113321703324410    0.8008452717627439    0.0942087347970094 C
   0.1965917314943262    0.0838156175977427    0.0942083521185084 C
   0.0759279576145398    0.2019579541076388    0.0940163032691869 C
   0.1541823993552352    0.6494189989263358    0.0963735540319409 C
   0.0724256875563770    0.5011873649852143    0.0962620576472677 C
   0.1528940156590631    0.3538652844480484    0.0965606858708241 C
   0.0791610712899176    0.7988948960008975    0.0940261270932639 C
   0.4949181311413001    0.0865255905235058    0.0970020444397681 C
   0.3451355023370328    0.1644153301454882    0.0969169169229796 C
   0.4945612544290888    0.9178304245611634    0.0968873621568729 C
   0.3456088666421636    0.8363273573243104    0.0967707156952377 C
   0.7889908610357798    0.0873765482793428    0.0949225169675186 C
   0.6427697084681295    0.1677341786656354    0.0970559659918191 C
   0.7898228123054251    0.9188405187367961    0.0949589383577325 C
   0.8300945851546808    0.6522733955749513    0.0958685554811520 C
   0.8286078112994119    0.3539111654805973    0.0955275705413618 C
   0.6435395583873147    0.8368100128290259    0.0969969629070635 C
   0.3202512823662037    0.3310538393839921    0.1003694157316653 C
   0.3213703158995458    0.6728583003531438    0.0994411326862077 C
   0.9052051689369728    0.5027596748984918    0.0956611384959982 N
   0.6678379580678582    0.3320484169224661    0.0986300462959396 N
   0.6696633629111738    0.6732138069081898    0.0988379933449449 N
   0.1972813606011221    0.9161435124038103    0.0939991694071065 N
   0.4882460170789132    0.4984838238476715    0.1341785944870084 Zr
