Title
1.0
   4.9440799999999996    0.0000000000000000    0.0000000000000000
   0.0000000000000000   17.1295089999999988    0.0000000000000000
   0.0000000000000000    0.0000000000000000   20.0000000000000000
C N Os
25 5 1
direct
   0.0008522748136728    0.1057174338108394    0.2969611295621414 C
   0.2503795835146723    0.1485098447841995    0.2976598530864463 C
   0.2503016498439617    0.2332644553388327    0.2997442651827305 C
  -0.0024706324746105    0.2739581667926616    0.3003186051420951 C
  -0.0026726540798481    0.6011540109981653    0.2998602270091022 C
   0.2503110316818251    0.7261741787858923    0.2983076772990771 C
   0.0017692524939879    0.8527318056120091    0.2973726343211721 C
   0.2503642873758228    0.8951275350225010    0.2972706717880868 C
   0.2503925305973904    0.9793559032545539    0.2969637621426110 C
   0.0022908161049663    0.7682650531794001    0.2977061203610636 C
   0.4998913841700852    0.1057157058777700    0.2969447947310626 C
   0.7503929983295243    0.1473532791019974    0.2969466205524216 C
   0.7503832676042241    0.2313295338470197    0.2980096787910293 C
   0.5000686300192487    0.0214531014570109    0.2968037831403748 C
   0.7502612202722885    0.3952123926442148    0.3015209415284784 C
   0.7501802427152187    0.4811831012319449    0.3013004566467137 C
   0.5031459042968000    0.2739349662471526    0.3002602341510440 C
   0.5031097024210115    0.6011556071491783    0.2996426919247680 C
   0.7503286487557933    0.7273193211512196    0.2973774730148642 C
   0.4989591762066418    0.8527261042296500    0.2973545317416512 C
   0.7503688855966657    0.8947026472349814    0.2971299389662619 C
   0.7503979526556840    0.9790146239225104    0.2968305040523114 C
   0.4983786291857981    0.7682573482856346    0.2976815486829024 C
   0.7502964788581999    0.6446458246994656    0.2977347519776553 C
   0.0007097761229406    0.0214511395673701    0.2968146221764731 C
   0.5125538241604662    0.5218452405049965    0.3035433525631858 N
   0.9877740463723584    0.5218217839223495    0.3041576669093705 N
   0.5131550471313491    0.3549651317842771    0.3049137453297012 N
  -0.0125278895833117    0.3550113618797839    0.3050658915603418 N
   0.2502313717118178    0.6413639483793643    0.2994434782436278 N
   0.2504295631253562    0.4366214493030504    0.3134183474211870 Os
