Title
1.0
   8.5490480000000009    0.0000000000000000    0.0000000000000000
   0.0000000000000000    8.5490480000000009    0.0000000000000000
   0.0000000000000000    0.0000000000000000   20.0000000000000000
C N Co
22 2 1
direct
   0.9106640177752460    0.2079247881436468    0.0976850818677650 C
   0.9127580148565188    0.7986750498805809    0.0977098862744955 C
   0.1986966767081274    0.0830984008425108    0.0978072942693596 C
   0.0747501365695938    0.2037707554062542    0.0977502966599153 C
   0.1585208184288911    0.6483925671365872    0.0978317521225713 C
   0.0755942689994193    0.5015414600562504    0.0977912123793942 C
   0.1574293176070195    0.3557250179577674    0.0978214782191148 C
   0.0780787206890518    0.7983825769745621    0.0977898295936499 C
   0.4933334852393760    0.0861233665955069    0.0977257834690331 C
   0.3452607322002279    0.1660687543770940    0.0978446858821306 C
   0.4925351841686630    0.9172385516726069    0.0976737383094609 C
   0.3459362158430282    0.8338624754684972    0.0977648080613557 C
   0.7869075273634764    0.0850736342118938    0.0976555128554961 C
   0.6383204065942549    0.1690448714730519    0.0977014601122456 C
   0.7876953081846607    0.9199214791289011    0.0976429837762258 C
   0.8295526246003403    0.6479527076993240    0.0976862142029725 C
   0.8273390153494420    0.3580082192770642    0.0976924378440960 C
   0.6387771987449959    0.8343716181293762    0.0976418041038296 C
   0.3245842272201793    0.3361130514059195    0.0978819355698071 C
   0.3249206019457488    0.6678432391335041    0.0977995126906021 C
   0.6601414170312850    0.3387198217789345    0.0977091384841301 C
   0.6616068864582491    0.6660607994260017    0.0976651924033868 C
   0.9097379108918880    0.5027929907099121    0.0977650549878866 N
   0.1984147729545961    0.9170597846145085    0.0978320115681189 N
   0.4938565135757075    0.5010240184997486    0.0978358942929366 Co
