Title
1.0
   9.8694509999999998    0.0000000000000000    0.0000000000000000
   0.0000000000000000    8.5490480000000009    0.0000000000000000
   0.0000000000000000    0.0000000000000000   20.0000000000000000
C N Cr
25 5 1
direct
   0.0551527617242956    0.0890289164321910    0.0859984799522227 C
   0.9305667702222651    0.1729232464280184    0.0856870847808360 C
   0.0572710304258180    0.9217357923871584    0.0869054958303471 C
   0.9328821094283350    0.3406518623013193    0.0850275201382077 C
   0.0559157276278233    0.5906531218398064    0.0861390725616728 C
   0.0564337395175731    0.4241958489828257    0.0850439361908656 C
   0.9324849250887777    0.8397592341875237    0.0882699036850704 C
   0.3062566964558032    0.0878964991951400    0.0936607675017046 C
   0.1807296591939475    0.1705437549762260    0.0889416090153711 C
   0.1803057274453907    0.3379670054492750    0.0889988906947799 C
   0.3026569993362299    0.5872614215159334    0.0981431636469716 C
   0.1800577166483873    0.6730575754258346    0.0896805626571009 C
   0.3023508784585526    0.4178764140948238    0.0983655257033729 C
   0.1828165277960718    0.8399411073120928    0.0892527534672273 C
   0.4291867655142428    0.1744957887422668    0.1014159780035092 C
   0.5562298623335784    0.9214900492222068    0.1016048869647268 C
   0.4234592059617441    0.6737530661069034    0.1086146043305536 C
   0.4288130925883020    0.8370829770369769    0.1018589300179492 C
   0.8048755914267157    0.0889011012541533    0.0898579276688344 C
   0.6815091890680117    0.1778836159699617    0.0957059542737262 C
   0.8069141302923045    0.9219953845997613    0.0917298075204628 C
   0.6863406742782493    0.3417765781941523    0.0980470896878667 C
   0.8107223493815966    0.5946969948789437    0.0930163049526123 C
   0.8101922965983778    0.4240565553702106    0.0903656089935482 C
   0.6820390821819834    0.8375827744560521    0.0992701626740113 C
   0.9329771408959232    0.6735715570953539    0.0874929797055595 N
   0.5555941291263231    0.0931003888947949    0.1007533759225425 N
   0.4223830709993410    0.3345762647205103    0.1089458586810047 N
   0.6925335331777095    0.6736330513185811    0.1031617000041477 N
   0.3058967154450651    0.9227785197279057    0.0929981790403010 N
   0.5575869013612628    0.5060085318831242    0.1260108857329271 Cr
