Title
1.0
   4.9440799999999996    0.0000000000000000    0.0000000000000000
   0.0000000000000000    8.5647549999999999    0.0000000000000000
   0.0000000000000000    0.0000000000000000   20.0000000000000000
C N Pt
11 3 1
direct
  -0.0002082072808340    0.2913914675676536    0.1004537700545189 C
   0.2507397081149349    0.0419253860136475    0.1004961156703760 C
  -0.0025482559583069    0.9555245860405728    0.1005273603732746 C
   0.7521537193879767    0.2071330709232760    0.1004457789910441 C
   0.5029758449737098    0.2948092029274277    0.1004367277652587 C
   0.7494763378843131    0.0412987367475626    0.1004982628735701 C
   0.7478185999907681    0.7140200826128624    0.1006377162077180 C
   0.7510380624263013    0.5342154239996678    0.1005777156765482 C
   0.5002781834606428    0.9599484329073577    0.1005393561692140 C
   0.5094350071327244    0.7942326763691572    0.1006056595526158 C
  -0.0090216337852727    0.4544612563937557    0.1005168259616728 C
   0.5111731986171384    0.4533961822479163    0.1005351687785225 N
  -0.0128209211375852    0.7943362009675887    0.1006265130703972 N
   0.2499248720589606    0.2093198319882566    0.1004377573163480 N
   0.2495854841145298    0.6256684622932998    0.1006452715389245 Pt
