Title
1.0
   9.8694509999999998    0.0000000000000000    0.0000000000000000
   0.0000000000000000    8.5490480000000009    0.0000000000000000
   0.0000000000000000    0.0000000000000000   20.0000000000000000
C N V
28 3 1
direct
   0.0562366421153833    0.0918573700876050    0.0844902971847231 C
   0.9308708589544951    0.1745668592217413    0.0865983679821660 C
   0.0562399304900386    0.9244633081903154    0.0839125489292811 C
   0.9296797687570684    0.3410622534328294    0.0898077169680826 C
   0.0562274362361491    0.5892551721997004    0.0863523880997495 C
   0.9325695970163818    0.6737072184016853    0.0879644555777967 C
   0.0562305756736141    0.4229509987978974    0.0883633367226205 C
   0.9323736990758464    0.8402340668906326    0.0862301935302462 C
   0.3057738413743001    0.0892852134207178    0.0877101489650107 C
   0.1815975853918500    0.1745606315153539    0.0865426141522306 C
   0.3049779456002249    0.9237670219606130    0.0887152630008453 C
   0.1827834342538683    0.3410469620743367    0.0897493417346835 C
   0.3040153980467265    0.5928838656193079    0.0976968432625572 C
   0.1798884796265404    0.6737137287112093    0.0878595940338624 C
   0.3093860058970345    0.4246509875925885    0.0967523838378480 C
   0.1801117720375287    0.8402478549465463    0.0861240820497773 C
   0.5562355615887116    0.0840085890238294    0.0953584062207043 C
   0.4313795878712842    0.1691617932179344    0.0930896044473743 C
   0.5562520321930637    0.9171868949271388    0.0993427485426374 C
   0.4331588043099577    0.3339453201474829    0.0999545223543105 C
   0.4265600203553180    0.8387389076146771    0.0990720097635225 C
   0.8067114060934306    0.0892823064048682    0.0877947217112178 C
   0.6811160832782290    0.1691491280045058    0.0931388361847276 C
   0.8075267800624774    0.9237701221725619    0.0888494117000362 C
   0.6793240404965548    0.3339354222207573    0.1000084629940760 C
   0.8084793830072193    0.5928679874849860    0.0978562934452812 C
   0.8030905963578095    0.4246400271262383    0.0968637109869905 C
   0.6859440872900319    0.8387293335374032    0.0991934176255245 C
   0.4178109944144064    0.6811742768088750    0.1109023195150836 N
   0.5562306937957858    0.4047780213680401    0.1124862553289867 N
   0.6947223452595109    0.6811841886959011    0.1110705667160403 N
   0.5561336130791649    0.5894401681817285    0.1658241364320402 V
