Title
1.0
   4.9440799999999996    0.0000000000000000    0.0000000000000000
   0.0000000000000000   17.1295089999999988    0.0000000000000000
   0.0000000000000000    0.0000000000000000   20.0000000000000000
C N Ru
28 3 1
direct
   0.0017457031030882    0.1049892151991955    0.2869869837096476 C
   0.2519447634758215    0.1469779824606011    0.2900288103197350 C
   0.2530360564648532    0.2300307455479650    0.2985315822873214 C
   0.0076102875757402    0.3520528229232337    0.3170011700569597 C
   0.0019147798076651    0.2715020926245762    0.3024096082936866 C
  -0.0066660232937973    0.6025160877651674    0.3019393349289900 C
   0.2478415133270488    0.7273085535944254    0.2920327445251042 C
  -0.0002503480639628    0.8535942747783656    0.2845020726037887 C
   0.2495893240619147    0.8956649884929879    0.2840611739306747 C
   0.2504036672827769    0.9793588161569915    0.2837822074744350 C
  -0.0008732840603008    0.7698872769350683    0.2877632741848541 C
   0.5014318361886194    0.1049280776729260    0.2870691456487880 C
   0.7517519696635834    0.1471031289851451    0.2889233523249659 C
   0.7525375145945506    0.2298332328483971    0.2955235350134445 C
   0.5007234456647283    0.0213998008334753    0.2842461006607018 C
   0.5004488799354947    0.3525788446761789    0.3178032966046035 C
   0.7507618183535584    0.4812622025912721    0.3188807725437012 C
   0.5041979027055061    0.2717345095810316    0.3027751903998396 C
   0.5019029406557145    0.6041402412572108    0.3091695329033143 C
   0.7488369237741246    0.7286665545669342    0.2904042041710093 C
   0.4989827370801985    0.8534767519161843    0.2849980881624846 C
   0.7496169316246066    0.8954926497537646    0.2837208394637091 C
   0.7504214744764098    0.9792373384233264    0.2834495641936249 C
   0.4981204767841261    0.7698110891372046    0.2888988386733697 C
   0.7479057534379594    0.6454408867185145    0.2982826732290222 C
   0.2477838093942857    0.6438687108250023    0.3014602352160101 C
   0.0006116640743094    0.0214224451610244    0.2841527935980728 C
   0.5166697293989325    0.5244888677870235    0.3321769761638463 C
   0.9874588001153607    0.5211411903345201    0.3057536507690554 N
   0.2538402244266951    0.3869947731171432    0.3336511540500916 N
   0.7546973239029240    0.3962418102949229    0.3200573977856854 N
   0.2218244040674712    0.4854050370402095    0.3821286961094146 Ru
