Title
1.0
   4.9440799999999996    0.0000000000000000    0.0000000000000000
   0.0000000000000000    8.5647549999999999    0.0000000000000000
   0.0000000000000000    0.0000000000000000   20.0000000000000000
C N Tc
13 2 1
direct
   0.2484143652181426    0.2093672896061627    0.0913391438834511 C
  -0.0059870065474042    0.2902636076648674    0.0940262395445822 C
   0.2499829446404431    0.0434055737309421    0.0854800738908644 C
   0.0048303535644232    0.7962589866525487    0.0978920712037869 C
   0.0007805918427409    0.9590780076271948    0.0849727101187989 C
   0.7479209101551789    0.2071234488333634    0.0857701132122269 C
   0.5013729830243026    0.2887133548509908    0.0963459814945188 C
   0.7505943819625179    0.0408907545255010    0.0812387290533106 C
   0.7546521555726489    0.7070712273630689    0.1030531024002499 C
   0.5011872520917073    0.7956968360913094    0.0986829253345593 C
   0.7511066355094461    0.5373384702771778    0.1077786640853741 C
   0.5011505453641620    0.9592944662803244    0.0857841654881293 C
   0.5143763312367359    0.4477760987688058    0.1173406996459254 C
  -0.0150449721511502    0.4477176041049786    0.1094508817272666 N
   0.2529874785635839    0.7283636295790048    0.1140055969735308 N
   0.2416750499525215    0.5416406440437599    0.1693509019434323 Tc
