Title
1.0
   8.5490480000000009    0.0000000000000000    0.0000000000000000
   0.0000000000000000    8.5490480000000009    0.0000000000000000
   0.0000000000000000    0.0000000000000000   20.0000000000000000
C N Co
20 4 1
direct
   0.9093305101308913    0.2066032983087720    0.0976441862828532 C
   0.9113167000113811    0.8000941105765029    0.0976585494835671 C
   0.2004501133116618    0.0840410670769787    0.0978530211918456 C
   0.0758393365933717    0.2046504394243224    0.0977566706844209 C
   0.1556552107482606    0.6477471196846377    0.0977515979103594 C
   0.0710762427158689    0.5015106054653927    0.0977390603947745 C
   0.1543015547120273    0.3565807267548244    0.0977738905060870 C
   0.0794043966618023    0.7975085163835512    0.0977838191247693 C
   0.4956897197102647    0.0871957455632903    0.0977683154432050 C
   0.3479415658348902    0.1680453110751468    0.0978730365588941 C
   0.4951403441713805    0.9159390017653968    0.0977385800266269 C
   0.3488424138703715    0.8311239312940782    0.0978709943520095 C
   0.7888627882518040    0.0870806447493213    0.0975599561155302 C
   0.6423992565277127    0.1686458801125245    0.0977049608183846 C
   0.7897603828751520    0.9183898012392432    0.0975586686087210 C
   0.8256555609213201    0.6508682260187083    0.0977382225877247 C
   0.8233483720666729    0.3556669786572936    0.0977605937728751 C
   0.6428339235380990    0.8349273788006651    0.0976785149805211 C
   0.3243542042062251    0.3393969604237854    0.0977580134728034 C
   0.3246893000007204    0.6647128736537660    0.0977337882765179 C
   0.9021163906765274    0.5028938700055594    0.0978178841033071 N
   0.6640605032741902    0.3341757787894559    0.0977970924069282 N
   0.6657117088952549    0.6710825780791868    0.0977631611396755 N
   0.2002079642351173    0.9159361005477415    0.0979539844834704 N
   0.4864235360590264    0.4999730555498760    0.0976684372741013 Co
