Title
1.0
   9.8694509999999998    0.0000000000000000    0.0000000000000000
   0.0000000000000000    8.5490480000000009    0.0000000000000000
   0.0000000000000000    0.0000000000000000   20.0000000000000000
C N Re
26 4 1
direct
   0.0552440681980266    0.0896317172826354    0.0852535822313662 C
   0.9303889941592461    0.1717521351069925    0.0876534588477761 C
   0.0569350723886596    0.9229953151584986    0.0853854750393589 C
   0.9334037310629076    0.3390942258526758    0.0875124390777254 C
   0.0577376860660958    0.5896019045502471    0.0814204815515755 C
   0.9337048939071340    0.6730833110368606    0.0875386457898588 C
   0.0576495209737181    0.4227980509847341    0.0814117596177977 C
   0.9312785634622079    0.8402708300167638    0.0877856933311216 C
   0.3066930050112547    0.0879903419106809    0.0900927852021375 C
   0.1814902254614821    0.1715147698841787    0.0853515519347675 C
   0.1813751706715944    0.3386547533926650    0.0827266510244119 C
   0.3047785817575273    0.5899221295397958    0.0886837368906536 C
   0.1818970847885687    0.6731839579303101    0.0826229265846452 C
   0.3048898208119576    0.4213547740937527    0.0886605796764523 C
   0.1813536287683926    0.8400748467731263    0.0856133446600579 C
   0.4288679034527262    0.1746353388698015    0.0978854834164943 C
   0.5526419918917416    0.9218519727144037    0.1026042724327296 C
   0.4281764040511569    0.8382608381614931    0.0988225734844253 C
   0.8033868157045961    0.0895630290807256    0.0924754043781685 C
   0.6803090441711261    0.1762174543271010    0.1019864739419504 C
   0.8050064861317293    0.9221550072243232    0.0929013446268687 C
   0.6886746301489733    0.3405211305346029    0.1136323408148089 C
   0.8136481678361126    0.5902649019960161    0.0994093045780272 C
   0.6899176938948161    0.6719211472497735    0.1138028285547622 C
   0.8135198125220474    0.4214965037084989    0.0994178712941546 C
   0.6807469921536268    0.8373969045346686    0.1032175476191228 C
   0.5536951581161341    0.0932831694480419    0.1020993259376197 N
   0.4230827024274769    0.3356716302600328    0.1020331952451260 N
   0.4217125728379480    0.6762779451561433    0.1034848295357430 N
   0.3057585448088927    0.9223964667473977    0.0901856578238203 N
   0.5551700323621394    0.5070384964730634    0.1392934348565208 Re
