Title
1.0
   9.8694509999999998    0.0000000000000000    0.0000000000000000
   0.0000000000000000    8.5490480000000009    0.0000000000000000
   0.0000000000000000    0.0000000000000000   20.0000000000000000
C N Ti
29 2 1
direct
   0.0561927800974790    0.0905184998200322    0.0851533674377820 C
   0.9310638020110901    0.1739379026295152    0.0877304447006248 C
   0.0567831960592389    0.9230872430018761    0.0845754526472585 C
   0.9303846742912167    0.3405554940036477    0.0918667390869016 C
   0.0561856859086017    0.5896920281398186    0.0887970357204035 C
   0.9322792754469389    0.6730139136446206    0.0893243765475812 C
   0.0566835822018383    0.4232269861824151    0.0907177674086381 C
   0.9310469730519148    0.8401820347157568    0.0857281313569743 C
   0.3049010719697813    0.0876773216073831    0.0870201684867480 C
   0.1818047553623298    0.1740730990627622    0.0869816217444968 C
   0.3069602309840115    0.9224014020516514    0.0888671646062212 C
   0.1814594704929436    0.3400738473117039    0.0910364130167185 C
   0.3061043464221450    0.5893983794865720    0.1000799753674550 C
   0.1820689214897586    0.6711282066479157    0.0897136892149264 C
   0.1820145331119749    0.8379377601789335    0.0874076420718551 C
   0.5549719453015357    0.0880184317290020    0.0932527277944212 C
   0.4292251372929988    0.1700664777837896    0.0912280686942156 C
   0.4287336191821484    0.3355486965321212    0.0991601023666205 C
   0.4302137693110343    0.8387492812328230    0.0993771495242392 C
   0.8068119158047675    0.0904478341508742    0.0875867902450953 C
   0.6805552779684426    0.1702724850488771    0.0933368708138661 C
   0.8060573895690325    0.9253909653883385    0.0863452215849167 C
   0.6786763949262282    0.3358094186107257    0.1018460251815917 C
   0.8067685434666763    0.5921021305796613    0.0987527173359773 C
   0.8045583739610591    0.4234770776253376    0.0989273861391583 C
   0.6815787413263918    0.8432321929065985    0.0952316064571004 C
   0.4256120037082546    0.6764382747184278    0.1155801107899340 C
   0.5512415783018157    0.4102456929273448    0.1128368818529643 C
   0.6874489910610769    0.6831763429628407    0.1083388873541374 C
   0.5552756776489984    0.9225850830688488    0.0963603669156220 N
   0.3057738549286995    0.4224713374669762    0.0976478327698862 N
   0.5702024873395816    0.5853101587828099    0.1748662647656846 Ti
