Title
1.0
   4.9440799999999996    0.0000000000000000    0.0000000000000000
   0.0000000000000000   17.1295089999999988    0.0000000000000000
   0.0000000000000000    0.0000000000000000   20.0000000000000000
C N Os
28 2 1
direct
  -0.0082133834915314    0.1055256779612681    0.2953058551516024 C
   0.2407267673346163    0.1479158218164243    0.2965879152109426 C
   0.2372815935206525    0.2318655762555704    0.3000059558253910 C
  -0.0162586297795431    0.2724768959631566    0.3014382504245669 C
   0.0187259832552774    0.6022877496345413    0.2930744899738841 C
   0.2598208350907185    0.7263416680362298    0.2957247090345844 C
   0.0043354624393907    0.8526661656227761    0.2938730508017860 C
   0.2519233798202978    0.8951021157919993    0.2942653631327005 C
   0.2473429426380141    0.9791220647092230    0.2943992812797609 C
   0.0084741930591894    0.7684226871598222    0.2939250248242194 C
   0.4915038494741727    0.1052710660349670    0.2952633338891804 C
   0.7398133042226477    0.1474125025828739    0.2955792067208675 C
   0.7339771816520401    0.2315201464853344    0.2979716576105686 C
   0.4960016521801326    0.0212128143466542    0.2945051981161687 C
   0.7500407502920799    0.3943139868725631    0.3047965769972890 C
   0.7713086586885449    0.4807030078100635    0.3081725889234599 C
   0.4843833533836113    0.2752757247692099    0.3009439706309832 C
   0.5141953797914935    0.6012016595307035    0.3040525262999617 C
   0.7590878620945085    0.7270621668417098    0.2944981212476973 C
   0.5026284768098753    0.8527788751299571    0.2945166382136160 C
   0.7521567245503160    0.8947085391123509    0.2940467547492701 C
   0.7476519645689018    0.9789751188844472    0.2941848130427129 C
   0.5075552425522484    0.7685528033089052    0.2953570904341241 C
   0.7623522618115240    0.6436400997774757    0.2956512914342597 C
  -0.0038517739093214    0.0213693945608413    0.2944172609355360 C
   0.5184133268129527    0.5200157342672797    0.3230629055725583 C
   0.0130897980405881    0.5195629117381585    0.2923440002016849 C
   0.4974038214127962    0.3595862945383663    0.3053971605033822 C
  -0.0198858840416384    0.3519980972439434    0.3082922029004890 N
   0.2641972355696367    0.6440271098998774    0.2977002738523682 N
   0.2338246701558078    0.4404275233133054    0.3357065320643349 Os
