Title
1.0
   4.9440799999999996    0.0000000000000000    0.0000000000000000
   0.0000000000000000   17.1295089999999988    0.0000000000000000
   0.0000000000000000    0.0000000000000000   20.0000000000000000
C N Sc
26 4 1
direct
   0.0001201768065341    0.1061606395811736    0.2949873977323121 C
   0.2489348645754127    0.1490510699047630    0.2959477648316416 C
   0.2484114864450322    0.2339325672824712    0.2995745533643817 C
  -0.0034726938934661    0.2756260096959797    0.3038201228656731 C
  -0.0035956654106312    0.5992936515942772    0.3039778724274220 C
   0.2489004908577998    0.7258814984507519    0.2963536592826675 C
  -0.0004121036162794    0.8530245972494368    0.2939756564981112 C
   0.2492713166204893    0.8953184866471227    0.2935094158362706 C
   0.2492988676085714    0.9796416250973978    0.2933731231725719 C
   0.0000822060602956    0.7687867559498569    0.2954144263619111 C
   0.4984964374383019    0.1063548666938003    0.2940343625698053 C
   0.7497531084310366    0.1483251466207188    0.2949414415363578 C
   0.7500671715735147    0.2318409757851167    0.2971420358764785 C
   0.4988850495920975    0.0220825305706072    0.2931917385033191 C
   0.7482242748784382    0.3953914401762922    0.3049300786354065 C
   0.7482174812050835    0.4794968616577876    0.3048851246721824 C
   0.5015603326996327    0.2750238125954777    0.2973397552376952 C
   0.5014713758251275    0.5998775841042089    0.2974995412576357 C
   0.7496903411401671    0.7266151585370414    0.2953925089513486 C
   0.4988436857868871    0.8528742693219116    0.2934603558647649 C
   0.7491538089168038    0.8953559983634446    0.2932646796260151 C
   0.7491600247991491    0.9795872607756674    0.2931280604144093 C
   0.4984582432394433    0.7685871326643693    0.2944853199266532 C
   0.7499279738700250    0.6431000761851515    0.2974568752065870 C
   0.2483301990790764    0.6409813579599712    0.2998437851602222 C
  -0.0003930604291932    0.0219281145671391    0.2937123512088457 C
   0.5080804162473319    0.5200785825699634    0.2952385010180749 N
   0.9893189270039588    0.5198409409323731    0.3162636132071245 N
   0.5081182794311379    0.3547938194948784    0.2953288723134397 N
  -0.0106209946444327    0.3550345916195516    0.3162526026607025 N
   0.2877249778626542    0.4374545773512912    0.3463344037799210 Sc
