Title
1.0
   9.8694509999999998    0.0000000000000000    0.0000000000000000
   0.0000000000000000    8.5490480000000009    0.0000000000000000
   0.0000000000000000    0.0000000000000000   20.0000000000000000
C N Cr
27 3 1
direct
   0.0560952312953724    0.0898670037297405    0.0854024125510115 C
   0.9312719673830565    0.1720320074711596    0.0881390093547990 C
   0.0576118178880921    0.9230822832635688    0.0858140842952187 C
   0.9337866084292560    0.3387888401560911    0.0878089090180289 C
   0.0574155173488679    0.5900522680502829    0.0831635501055976 C
   0.9338651331652079    0.6738869981378691    0.0879238235151517 C
   0.0575368938849838    0.4229518954288481    0.0829681598639726 C
   0.9316763769847882    0.8399974283676939    0.0883198396077302 C
   0.3061336252509524    0.0887706620452884    0.0906554409118884 C
   0.1807467464254274    0.1710426944135780    0.0856837426622960 C
   0.1810302077952234    0.3393352587245033    0.0843901008970224 C
   0.3035692459378003    0.5906617880914549    0.0911645654881366 C
   0.1813947950585403    0.6731935255190842    0.0848820349196835 C
   0.3041812921547101    0.4215072321598570    0.0911035140090456 C
   0.1812127570197394    0.8410013821076027    0.0865297528271085 C
   0.5544918256286839    0.0908230978144745    0.1028438513502550 C
   0.4279659792511149    0.1760339869609014    0.0988331126253209 C
   0.5533631762879176    0.9219624656293550    0.1025763027445284 C
   0.4272302122964411    0.8355785756255151    0.0989146497854094 C
   0.8056890324463730    0.0897371393197368    0.0940706630227740 C
   0.6823763031123963    0.1758853098567226    0.1027988392928558 C
   0.8058115078956186    0.9219893829305353    0.0939692432416465 C
   0.6890956380315103    0.3416133637431177    0.1100657538202620 C
   0.8123897150879161    0.5911783044280280    0.0983656222135405 C
   0.6888870033545532    0.6704484742183359    0.1094397395932661 C
   0.8125581497611526    0.4212282580285471    0.0984797592548599 C
   0.6817509895356136    0.8356775508645705    0.1023760790979224 C
   0.4226174505539871    0.3385187772916595    0.1025186373008177 N
   0.4216752512823924    0.6758422730014003    0.1024901657809010 N
   0.3062438849413426    0.9226975092593062    0.0908405622902671 N
   0.5534606645109840    0.5054892633611779    0.1284330785587307 Cr
