Title
1.0
   4.9440799999999996    0.0000000000000000    0.0000000000000000
   0.0000000000000000   17.1295089999999988    0.0000000000000000
   0.0000000000000000    0.0000000000000000   20.0000000000000000
C N Hf
28 2 1
direct
  -0.0018458980363744    0.1050803599882327    0.2917550003648050 C
   0.2467204358122473    0.1475478030514845    0.2941572755633983 C
   0.2456901915747224    0.2313002536211191    0.2999737566738634 C
  -0.0056072523505343    0.2730683133129353    0.3015082779593409 C
   0.0066122380110709    0.6025433286990168    0.2985237093124027 C
   0.2538161642609036    0.7271222112692503    0.2933272291162783 C
   0.0027718913431514    0.8531434301279962    0.2893978088339097 C
   0.2511942810259008    0.8953731548616016    0.2893844973159679 C
   0.2496980161249668    0.9792913554001396    0.2895440830182533 C
   0.0043518353545711    0.7690205054258993    0.2909679790500569 C
   0.4974124685315700    0.1052705359555690    0.2922135785107151 C
   0.7478661781163399    0.1470680228460807    0.2931742234512109 C
   0.7460288903779322    0.2306764651443451    0.2977496289643405 C
   0.4990481740337093    0.0213481150916520    0.2900595338269254 C
   0.7509783968372569    0.3938879261444279    0.3133862736312257 C
   0.7582998636919988    0.4807118367208603    0.3127314828959430 C
   0.4962043632827172    0.2731139745567275    0.3038975904007580 C
   0.5050599464182904    0.6020688390388573    0.3032082827456518 C
   0.7534457193825420    0.7277693724148784    0.2920171852630716 C
   0.5005449733355095    0.8531620820476684    0.2897068151102303 C
   0.7512013872086818    0.8949802712376683    0.2890707554031300 C
   0.7496765273917727    0.9790331991084890    0.2892732711405748 C
   0.5019614627932649    0.7691449860900806    0.2914944317545954 C
   0.7549395998626355    0.6450643309665441    0.2959143498754876 C
  -0.0005989042677020    0.0211747464335809    0.2897957356694024 C
   0.5077671628550533    0.5218286650732585    0.3178927622644966 C
   0.0061793777293918    0.5208027380735721    0.3043172505081592 C
   0.5030803676383324    0.3547420032164326    0.3159198511098395 C
  -0.0082841481073774    0.3536081429292326    0.3079998272265931 N
   0.2550683135593695    0.6447860012684070    0.2983831769789020 N
   0.2307249762080852    0.4376090298839883    0.3583143760604233 Hf
