Title
1.0
   8.5490480000000009    0.0000000000000000    0.0000000000000000
   0.0000000000000000    8.5490480000000009    0.0000000000000000
   0.0000000000000000    0.0000000000000000   20.0000000000000000
C V
24 1
direct
   0.9107583892526456    0.2060835035353606    0.0982565428345580 C
   0.9083310696498329    0.5023806705663021    0.0972163445109830 C
   0.9111730440143218    0.7973638656199413    0.0972707551493026 C
   0.1974473156567947    0.0836811162984659    0.0974020402248247 C
   0.0745166633410033    0.2060047520216299    0.0981258846518539 C
   0.1978077534989469    0.9196661851944723    0.0974294356630929 C
   0.1588595362584856    0.6472077620529864    0.0966243341654641 C
   0.0764000915395578    0.5020192822884659    0.0973366075133023 C
   0.1565656169832365    0.3556799571992937    0.0969178692862721 C
   0.0752101800763450    0.7970553639318722    0.0974845076070259 C
   0.4924765799544822    0.0865810807229336    0.0968687620738224 C
   0.3466435564052949    0.1679144042150379    0.0956385371953927 C
   0.4928402252755288    0.9184820547553569    0.0968129767802139 C
   0.3476735409644359    0.8360856902587196    0.0963969024280133 C
   0.7886646192769756    0.0840311807386030    0.0980115087730571 C
   0.6388366624177069    0.1668203460416804    0.0974616762671247 C
   0.7887366631797450    0.9202942253375621    0.0976906923510775 C
   0.8269329275446208    0.6481776559518538    0.0955255935542924 C
   0.8281913372299423    0.3559469477148309    0.0978263461543354 C
   0.6390820688524733    0.8381194959251647    0.0962195737098032 C
   0.3226508398306784    0.3351866579044254    0.0924263259031809 C
   0.3259188635154315    0.6690708011768188    0.0940172345744334 C
   0.6617770867211977    0.3332568861687722    0.0962202194421662 C
   0.6596325555904540    0.6720260125562980    0.0918653884872344 C
   0.4982848129698571    0.4956541018231660    0.0666589406991509 V
