Title
1.0
   4.9440799999999996    0.0000000000000000    0.0000000000000000
   0.0000000000000000    8.5647549999999999    0.0000000000000000
   0.0000000000000000    0.0000000000000000   20.0000000000000000
C N Hf
13 2 1
direct
   0.2558156583971464    0.2131480738414310    0.0935669766685833 C
   0.0002276063716431    0.2956232512140402    0.0906470632109499 C
   0.2559606108845034    0.0452758958819539    0.0954458599902877 C
   0.0100342083424136    0.7974650221223629    0.1009943417168740 C
   0.0070742360511208    0.9616947678193488    0.0950281797414575 C
   0.7544740275949010    0.2071686424176056    0.0929360516516329 C
   0.5093692794006887    0.2909127777039555    0.0983207989227120 C
   0.7559702571927372    0.0425325049516570    0.0932694428672223 C
   0.7592903016360200    0.7083573122776975    0.1016621971886587 C
   0.5045586959970584    0.7949019747384066    0.1041438948619592 C
   0.7542843023293118    0.5379998840145791    0.0967930339476266 C
   0.5056872911644524    0.9607979724803066    0.0975246260879690 C
   0.5263610701268762    0.4526110578569530    0.1169827185072636 C
  -0.0144426575100319    0.4574608811164185    0.0712836147703508 N
   0.2563229914388695    0.7217053675180459    0.1120380743153613 N
   0.1590121205822891    0.5123446140452375    0.1618751255510988 Hf
