Title
1.0
   4.9440799999999996    0.0000000000000000    0.0000000000000000
   0.0000000000000000    8.5647549999999999    0.0000000000000000
   0.0000000000000000    0.0000000000000000   20.0000000000000000
C N Mo
9 5 1
direct
  -0.0024967786373766    0.2939388966073859    0.0961562494155034 C
   0.2500000000000000    0.0391187889117833    0.0976508867429147 C
  -0.0024413270766713    0.9571563632523866    0.0969760809438015 C
   0.7500000000000000    0.2071181759793341    0.0908526057187653 C
   0.5024967786373765    0.2939388966073859    0.0961562494155034 C
   0.7500000000000000    0.0412791993564317    0.0917068266422006 C
   0.7500000000000000    0.7110056092780817    0.0982666237869139 C
   0.7500000000000000    0.5376994558615982    0.0979255156218211 C
   0.5024413270766712    0.9571563632523866    0.0969760809438015 C
   0.5106919304628500    0.4522824997745650    0.1039478490184358 N
  -0.0106919304628499    0.4522824997745650    0.1039478490184358 N
  -0.0117032512781755    0.7953845612065941    0.1036234080963073 N
   0.5117032512781755    0.7953845612065941    0.1036234080963073 N
   0.2500000000000000    0.2125036326294638    0.0971431662434455 N
   0.2500000000000000    0.6254314963014468    0.1330272002958464 Mo
