Title
1.0
   9.8694509999999998    0.0000000000000000    0.0000000000000000
   0.0000000000000000    8.5490480000000009    0.0000000000000000
   0.0000000000000000    0.0000000000000000   20.0000000000000000
C N Cr
28 3 1
direct
   0.0561796213291773    0.0911423132281410    0.0859270880004091 C
   0.9308330819591839    0.1745361363061615    0.0886709311351530 C
   0.0572305185278423    0.9233357954071703    0.0849669484943136 C
   0.9295716970309298    0.3417150889102769    0.0918914289859140 C
   0.0555256232856627    0.5894489681786845    0.0884174432319942 C
   0.9322335778832590    0.6734891640221186    0.0890274591422160 C
   0.0564726985815547    0.4227539268431924    0.0906786403204045 C
   0.9322727628748660    0.8409657633615820    0.0867119052368420 C
   0.3053205882422780    0.0876785229828821    0.0872183307875595 C
   0.1819578330465489    0.1735062643359715    0.0877783962508957 C
   0.3075789804299938    0.9220814949284165    0.0878215279470487 C
   0.1809283773621778    0.3394624749028339    0.0918628460995741 C
   0.3048466122050128    0.5879167963083570    0.0994537040335665 C
   0.1812604618321333    0.6706922789559415    0.0892341719704825 C
   0.1825162399998320    0.8377066972522229    0.0867152072412652 C
   0.5559556556852505    0.0868782852365556    0.0946171209297663 C
   0.4302332604771108    0.1689891804162429    0.0927169001310925 C
   0.4289717536674984    0.3349122307311094    0.1015563295500667 C
   0.4302295448111719    0.8372185140445100    0.0973308588518353 C
   0.8068281346967991    0.0905392161557101    0.0889368226147987 C
   0.6806788405482161    0.1706381317083158    0.0946112085393479 C
   0.8072923628012167    0.9254110041477549    0.0881988476117039 C
   0.6786364372997364    0.3361565328065266    0.1029566455972162 C
   0.8068453493293559    0.5941050997195407    0.0973997563827135 C
   0.8033294468571422    0.4255655049419678    0.0983998522617555 C
   0.6841694487899085    0.8412698737971714    0.0955380403043324 C
   0.4234091355896229    0.6759140290025752    0.1123998282179530 C
   0.5515180774529099    0.4091154524859397    0.1161382308051936 C
   0.6901854436173095    0.6837207101747175    0.1065744070981077 N
   0.5577350545087183    0.9194887560912196    0.0960515445357819 N
   0.3054931801387808    0.4210868242105268    0.0985106260499771 N
   0.5633991991388059    0.5928049684056638    0.1673619516407350 Cr
