Title
1.0
   8.5490480000000009    0.0000000000000000    0.0000000000000000
   0.0000000000000000    8.5490480000000009    0.0000000000000000
   0.0000000000000000    0.0000000000000000   20.0000000000000000
C N W
22 2 1
direct
   0.9113283158856461    0.2051793404117044    0.0954437771964709 C
   0.9083866419895481    0.5010773155612518    0.0953144021294420 C
   0.9091053760716887    0.7974749005189382    0.0954225667623048 C
   0.1973486523620967    0.0856916048419547    0.0954590846575050 C
   0.0769374350899999    0.2060829313632106    0.0954456651618485 C
   0.1964230995962286    0.9200903761430105    0.0954855370428636 C
   0.1549760710902321    0.6501334875329086    0.0954056067539642 C
   0.0776784718013175    0.5025383067094863    0.0953448698966577 C
   0.1570926614085670    0.3537476502018731    0.0953280150395706 C
   0.0747201074445428    0.7984047227876931    0.0954577048215310 C
   0.4937647904748850    0.0864362429940673    0.0953765113228981 C
   0.3450029927563662    0.1658588981936464    0.0953486888871739 C
   0.4922986745953480    0.9171551515146154    0.0953785707636112 C
   0.3447162570943716    0.8398797683408576    0.0954326860594369 C
   0.7896367170710771    0.0834896245058391    0.0954568647909439 C
   0.6413310292695859    0.1637694016604664    0.0953983868323656 C
   0.7887116153298143    0.9178675781397835    0.0954386577843524 C
   0.8289108218024223    0.6498173400739671    0.0952905458645329 C
   0.8310764678449826    0.3534886085269298    0.0953530234385846 C
   0.6410360761545310    0.8376641923750766    0.0953208377401418 C
   0.3217364370772701    0.6731869300655755    0.0953715805289339 C
   0.6643666831127987    0.3305249560184934    0.0953064267955381 C
   0.3210069978459030    0.3297454138277427    0.0951593080109431 N
   0.6650037841899278    0.6737725226746426    0.0951342502711257 N
   0.4928158226408417    0.5017127350162781    0.0948314314472376 W
