Title
1.0
   4.9440799999999996    0.0000000000000000    0.0000000000000000
   0.0000000000000000    8.5647549999999999    0.0000000000000000
   0.0000000000000000    0.0000000000000000   20.0000000000000000
C N Tc
14 1 1
direct
  -0.0003731279467985    0.2884093439795883    0.0936017880781097 C
   0.2500000000000000    0.0434434755064144    0.0843074612543088 C
  -0.0007746993885117    0.7956727246787142    0.0967697996495858 C
  -0.0007618186437951    0.9601994018421940    0.0841964956695004 C
   0.7500000000000000    0.2066672043657960    0.0841559166930570 C
   0.5003731279467981    0.2884093439795883    0.0936017880781097 C
   0.7500000000000000    0.0418577814524094    0.0802157879371464 C
   0.7500000000000000    0.7087775352628406    0.1016777637823830 C
   0.5007746993885117    0.7956727246787142    0.0967697996495858 C
   0.7500000000000000    0.5394244056221429    0.1080576651926258 C
   0.5007618186437952    0.9601994018421940    0.0841964956695004 C
   0.5094237679006295    0.4470329594426941    0.1152520018732153 C
  -0.0094237679006292    0.4470329594426941    0.1152520018732153 C
   0.2500000000000000    0.7247052942123836    0.1138936642068810 C
   0.2500000000000000    0.2073580777643211    0.0896477197907344 N
   0.2500000000000000    0.5451373659273107    0.1709158506020507 Tc
