Title
1.0
   4.9440799999999996    0.0000000000000000    0.0000000000000000
   0.0000000000000000    8.5647549999999999    0.0000000000000000
   0.0000000000000000    0.0000000000000000   20.0000000000000000
C N Co
10 4 1
direct
  -0.0022676955324313    0.2972256362687405    0.1004254648212667 C
   0.2485397904953248    0.0376089489011714    0.1005222894668223 C
  -0.0022559351221170    0.9546029188210404    0.1004945390183629 C
   0.7472329105393419    0.2094839605744274    0.1004066499675899 C
   0.4972952113682472    0.2956844472670594    0.1004844596746815 C
   0.7492303010869727    0.0393494882522729    0.1004557008677522 C
   0.7549732935090713    0.7139478622604880    0.1006367092425574 C
   0.7533376298712143    0.5384066648457583    0.1005982244748443 C
   0.5007727798361908    0.9528528205479748    0.1005613071088609 C
   0.5030481055008674    0.4633946792218064    0.1005513809434419 C
  -0.0024749194197722    0.4593434011984301    0.1005087731841082 N
  -0.0070809517957166    0.7898072913725093    0.1005699274648092 N
   0.5102727126210141    0.7869637603595896    0.1006339714370332 N
   0.2477355474508360    0.2105739714211931    0.1004893373418978 N
   0.2516412195909561    0.6224351486875409    0.1006412649859751 Co
