Title
1.0
   9.8694509999999998    0.0000000000000000    0.0000000000000000
   0.0000000000000000    8.5490480000000009    0.0000000000000000
   0.0000000000000000    0.0000000000000000   20.0000000000000000
C N Ta
29 1 1
direct
   0.0558862525937918    0.0884124093094789    0.0884929134186478 C
   0.9309142754191054    0.1723753203853015    0.0883756098553836 C
   0.0565184198227580    0.9224706950225343    0.0888175914477892 C
   0.9329984002101767    0.3388933878217432    0.0898862434834040 C
   0.0568157640069091    0.5893504790983700    0.0909407288689332 C
   0.9332961158208700    0.6741246558232188    0.0910399360816001 C
   0.0564145611343643    0.4227544859734260    0.0906188831287376 C
   0.9313258561596970    0.8405061380547865    0.0893885353594388 C
   0.3058324496003090    0.0895870586160671    0.0928075034823746 C
   0.1800918727288584    0.1708371553849700    0.0908411520244326 C
   0.3070659712208758    0.9215463577687918    0.0925554712052093 C
   0.1794168034031935    0.3375099213352060    0.0923123671269738 C
   0.3041886376899975    0.5875528626129889    0.0973874375776423 C
   0.1806277560857494    0.6719597630278369    0.0925921661124001 C
   0.3018926327921499    0.4188504697721402    0.0975875040071520 C
   0.1816384207597553    0.8390707658020181    0.0909421333297839 C
   0.5543776475988330    0.0927667596234969    0.0960807563348455 C
   0.4287810404224330    0.1771373067080278    0.0974789449210809 C
   0.5550033439272714    0.9243241770040818    0.0962149162608044 C
   0.4293339201376596    0.6684137060944211    0.1017335307393211 C
   0.4315961058817809    0.8360040247871948    0.0967170219621979 C
   0.8054154871578016    0.0908185882222026    0.0890812440193555 C
   0.6803738926777004    0.1769739733588909    0.0925792960452442 C
   0.8056369855423222    0.9235881633202351    0.0898028316458179 C
   0.6848774984900841    0.3423645800272662    0.0939977233519255 C
   0.8098964251781233    0.5918594622790340    0.0937497003498911 C
   0.6851346509044045    0.6731457053534853    0.0982393313103320 C
   0.8097550029098378    0.4225730239113146    0.0919447416287549 C
   0.6807482371760062    0.8393396916453587    0.0941421011011931 C
   0.4238163289650199    0.3401168918897139    0.1032170541604552 N
   0.5634642435821703    0.5056470199664106    0.1413996296589190 Ta
