Title
1.0
   4.9440799999999996    0.0000000000000000    0.0000000000000000
   0.0000000000000000   17.1295089999999988    0.0000000000000000
   0.0000000000000000    0.0000000000000000   20.0000000000000000
C N W
30 1 1
direct
  -0.0003108035824610    0.1043754963033482    0.2782136857138700 C
   0.2498175833554199    0.1458061261921971    0.2830068018846765 C
   0.2498267444647140    0.2278037139194946    0.2958220749780860 C
   0.0000272699184375    0.3486402988667016    0.3219414222179326 C
  -0.0010903589181244    0.2687278899791293    0.3026080002584411 C
  -0.0030870416175784    0.6083234117184054    0.3166529943590195 C
   0.2499805965190769    0.7298429742696694    0.2924047624898163 C
   0.0002245219156366    0.8542658097444333    0.2768278302357551 C
   0.2499210268317442    0.8959887479102199    0.2743455991468245 C
   0.2498607796399048    0.9794155664513744    0.2724867310063676 C
   0.0004343787902144    0.7713384494259515    0.2854750926640047 C
   0.4999606632458540    0.1043766948085006    0.2782140748261721 C
   0.7498208961424604    0.1459321709513732    0.2821356255615637 C
   0.7498218800913988    0.2281301686211012    0.2936023835594951 C
   0.4999748725890633    0.0211436328094154    0.2731332439243881 C
   0.4996582720304428    0.3486479647170707    0.3219358880443319 C
   0.7498659796007686    0.3939555069425259    0.3278121956101925 C
   0.7499420671044967    0.4795682320074438    0.3328224579898089 C
   0.5007386537511845    0.2687334773830899    0.3026045134334350 C
   0.5031099416442331    0.6083309725006421    0.3166840022029435 C
   0.7499824697633222    0.7306014974217947    0.2906415975834805 C
   0.4996403570749671    0.8542635012203972    0.2768271591064209 C
   0.7499164974340935    0.8958144869444679    0.2740486064742123 C
   0.7498546451583779    0.9793323472354951    0.2722020721368438 C
   0.4995102649337783    0.7713376515265190    0.2854801013829236 C
   0.7500060329805514    0.6489498721487140    0.3052342618488498 C
   0.2500110803547146    0.6483155301810025    0.3093145623689245 C
  -0.0002785090650660    0.0211418725074814    0.2731321294813003 C
   0.5132323716958249    0.5279200181022173    0.3370992315162601 C
   0.9867268938876242    0.5279026758505783    0.3370334605663373 C
   0.2498501394529008    0.3817880139498715    0.3384260664590796 N
   0.2498728328120312    0.4778362273893660    0.3943963709681924 W
