Title
1.0
   4.9440799999999996    0.0000000000000000    0.0000000000000000
   0.0000000000000000   17.1295089999999988    0.0000000000000000
   0.0000000000000000    0.0000000000000000   20.0000000000000000
C N Re
29 1 1
direct
   0.9945792868486819    0.1055882482164315    0.2930528134704736 C
   0.2436713344364710    0.1477412132571272    0.2946541276637318 C
   0.2414713155254115    0.2314666292646299    0.2984365855801218 C
   0.9894875231495124    0.2724030072060838    0.2990356326340953 C
   0.0121181018874996    0.6025343770097360    0.2974502332132986 C
   0.2570850286132546    0.7276973436121780    0.2949543646576487 C
   0.0025550859893384    0.8534770331676977    0.2924809650447728 C
   0.2515399181309743    0.8956235196677877    0.2926570720464887 C
   0.2483604166004361    0.9794838062566080    0.2924293746809506 C
   0.0054752057648400    0.7695148717580065    0.2931133917395398 C
   0.4942590221332153    0.1054162772316221    0.2935280819418807 C
   0.7432527420271325    0.1474280699042413    0.2938151322097052 C
   0.7391636790796621    0.2313013221067836    0.2968780516993877 C
   0.4973624202781526    0.0215645974384867    0.2925721160820582 C
   0.7524696369050589    0.3933065270010053    0.3073650463819065 C
   0.7660345210864588    0.4786628572079463    0.3105113265561628 C
   0.4890838420843591    0.2743973087984871    0.3015349784358518 C
   0.5092550190852498    0.6011473240245011    0.3050941394214008 C
   0.7560095665824971    0.7274870979000215    0.2942964956530617 C
   0.5027233509214463    0.8536546743765574    0.2930757968397268 C
   0.7518165715870166    0.8956482591543465    0.2924709016940168 C
   0.7486318854759463    0.9795951916870238    0.2922481728978273 C
   0.5057647469015082    0.7698348852129246    0.2942764413819852 C
   0.7581790019068444    0.6434670237014685    0.2974382027348593 C
   0.2606002328415747    0.6441388863502581    0.2990340186761659 C
   0.9976461737619633    0.0216548812768363    0.2922565131847155 C
   0.5146202070840526    0.5190671793328770    0.3217783491302814 C
   0.0082234628183427    0.5195464770809669    0.3002112108307886 C
   0.5002020628277417    0.3574502897064257    0.3108129909676322 C
   0.9876419193279715    0.3523836757786855    0.3033447647644100 N
   0.2307237183373745    0.4386591453122527    0.3442527077849990 Re
