Title
1.0
   9.8694509999999998    0.0000000000000000    0.0000000000000000
   0.0000000000000000    8.5490480000000009    0.0000000000000000
   0.0000000000000000    0.0000000000000000   20.0000000000000000
C N Ru
26 4 1
direct
   0.0562086741642396    0.0892702613940185    0.0938270138714998 C
   0.9320300706605213    0.1718041059141597    0.0940927005315375 C
   0.0561975076121277    0.9230269750589051    0.0938271435247095 C
   0.9337367644592707    0.3390835200291958    0.0940138441231408 C
   0.0562369143573436    0.5888298939654386    0.0935959585316372 C
   0.9337395630495506    0.6732011150908839    0.0939786759158306 C
   0.0562380411790103    0.4234663985762183    0.0936065762702172 C
   0.9320209690180458    0.8404968557198047    0.0940744557804248 C
   0.3055055432577047    0.0900558475903166    0.0948362075529000 C
   0.1803939824756334    0.1718183759539779    0.0941274716300579 C
   0.3054826080014685    0.9222551838098628    0.0948430608022100 C
   0.1787358940647639    0.3391003321451639    0.0940601283763951 C
   0.3005769404003214    0.5914501609637525    0.0949915679305111 C
   0.1787261856729199    0.6732075647409357    0.0940707475402303 C
   0.3005992575187347    0.4208214516798309    0.0949756398271027 C
   0.1803751796460611    0.8405009392637394    0.0941406957461642 C
   0.5562015391323230    0.0927020112539325    0.0958932194441039 C
   0.4286610107607357    0.1769310025583391    0.0956249820106194 C
   0.5561918848637977    0.9195724350899155    0.0958960753305342 C
   0.4286232686951835    0.8353813448980481    0.0956438553405533 C
   0.8069151375645630    0.0900465138794854    0.0947922057291754 C
   0.6837728157084477    0.1769184579812881    0.0955986894339337 C
   0.8069134801916534    0.9222581528215338    0.0947805579241475 C
   0.8119286465359223    0.5914544594038443    0.0948613992700016 C
   0.8119138054939334    0.4208161196597383    0.0948945891255376 C
   0.6837778950792477    0.8353986058571392    0.0955717845305605 C
   0.4211980063294639    0.3391156098131423    0.0959188391917847 N
   0.4211485986852087    0.6732342753198094    0.0959337008268018 N
   0.6913555094799295    0.3390839862553623    0.0958552294378116 N
   0.6913897424396500    0.6732596627256258    0.0958287253734827 N
   0.5563405635022304    0.5063133805865896    0.0968092590764241 Ru
