Title
1.0
   4.9440799999999996    0.0000000000000000    0.0000000000000000
   0.0000000000000000   17.1295089999999988    0.0000000000000000
   0.0000000000000000    0.0000000000000000   20.0000000000000000
C N Au
26 4 1
direct
   0.0033057657068933    0.1060862269570458    0.2980504128079504 C
   0.2523208662057088    0.1494207989990767    0.2978221381530901 C
   0.2532683897565859    0.2343967545677026    0.2986267600959699 C
  -0.0009353529430340    0.2747553424324058    0.3041195731925724 C
  -0.0082225737763980    0.6001359915185167    0.2929252014263623 C
   0.2483218455624608    0.7255194325467617    0.2978104464160669 C
   0.0001309546726166    0.8530415619964258    0.2964530441412371 C
   0.2498148411772125    0.8954159088185399    0.2967012528640859 C
   0.2508568668790607    0.9795279916543431    0.2967289141340083 C
  -0.0005035697826944    0.7687348431611908    0.2965389097699571 C
   0.5010912975708032    0.1062157544887460    0.2965221455004368 C
   0.7528052277322941    0.1473637208510822    0.2974425543066699 C
   0.7536178510790147    0.2311351507993301    0.2980189179644047 C
   0.5004955283370568    0.0219251232093311    0.2964589890791683 C
   0.7494071186639976    0.3917738323160987    0.2963537708155377 C
   0.7514147664862124    0.4831380310645124    0.2963623186052637 C
   0.5088312386705550    0.2748063040432668    0.2929458373047020 C
   0.5015100012046297    0.6001094160912860    0.3039937544471098 C
   0.7477559931957679    0.7275739785565765    0.2973759172786921 C
   0.4988459627180331    0.8531265279727571    0.2971101481692762 C
   0.7498282390929792    0.8952639067411856    0.2966213355618939 C
   0.7508336762638531    0.9797142332442010    0.2966511124065577 C
   0.4972755436564786    0.7688654260007254    0.2979924274328689 C
   0.7469120888848875    0.6437975894842746    0.2979016928774956 C
   0.2473395176523992    0.6405320612355814    0.2985784245100108 C
   0.0018406081190893    0.0218367465761471    0.2971811181782990 C
   0.5234096881327549    0.5203926507429701    0.3160955570391255 N
   0.9796385157546591    0.5210569015909219    0.2808081874097044 N
   0.5212457195460650    0.3538455969231238    0.2807019793626524 N
  -0.0229314363357200    0.3544469518279136    0.3162442770117715 N
   0.2504818201157812    0.4373872435879562    0.3579228817370119 Au
