Title
1.0
   8.5490480000000009    0.0000000000000000    0.0000000000000000
   0.0000000000000000    8.5490480000000009    0.0000000000000000
   0.0000000000000000    0.0000000000000000   20.0000000000000000
C N Mn
19 5 1
direct
   0.9073820695145324    0.2059094223859347    0.0975786358988462 C
   0.9082085950075042    0.5026055913957548    0.0977431273934362 C
   0.9095795976541871    0.8010191022520824    0.0975891249502608 C
   0.1969297545906927    0.0841081504493463    0.0976767238959453 C
   0.0761193811721373    0.2027733406265472    0.0975899807873517 C
   0.1589154467001525    0.6512141954756804    0.0976621031453923 C
   0.0791784192726965    0.5011367485163768    0.0976624398619862 C
   0.1590556198005911    0.3518650192029553    0.0977084633506433 C
   0.0786560782816684    0.7978866455240688    0.0976126923889159 C
   0.4927044672542673    0.0874994860281901    0.0978327823273520 C
   0.3441327137804817    0.1657277471619223    0.0978313885309321 C
   0.4923041753949799    0.9168091898701597    0.0977322487140278 C
   0.3440441478782054    0.8358487608459807    0.0977361912632777 C
   0.7870269579879536    0.0869284399278092    0.0976198071882920 C
   0.6398914698408520    0.1685973803943527    0.0978728809325510 C
   0.7878948030008024    0.9188378206329531    0.0975912990531601 C
   0.8289887619093834    0.6513347832921712    0.0977307079688451 C
   0.8270777203334847    0.3541215834247368    0.0978111193907356 C
   0.6403751224318740    0.8354365967215190    0.0977123091101276 C
   0.3214383798952754    0.3282631867215610    0.0979299978367407 N
   0.3213813204985869    0.6765406712469050    0.0977449027487213 N
   0.6638862505391493    0.3316705982179396    0.0981406210976942 N
   0.6655617610346131    0.6729375801764426    0.0978760312167625 N
   0.1984178662040399    0.9158609426511264    0.0977069037013090 N
   0.4962611200218812    0.4998570168574826    0.0980125172466732 Mn
