Title
1.0
   4.9440799999999996    0.0000000000000000    0.0000000000000000
   0.0000000000000000   17.1295089999999988    0.0000000000000000
   0.0000000000000000    0.0000000000000000   20.0000000000000000
C N Mn
29 2 1
direct
   0.0018613037775887    0.1040914401596727    0.2824849124847413 C
   0.2522173662611136    0.1458231344661159    0.2855723938011416 C
   0.2531837486870619    0.2286757664398892    0.2946150092489546 C
   0.0059750961874175    0.3510571853450685    0.3149448961375796 C
   0.0020076447351038    0.2696458096918468    0.2994077856926655 C
  -0.0070310580375957    0.6050247379712105    0.3092449867870363 C
   0.2475753724617932    0.7284174210675487    0.2948426660942427 C
  -0.0004232818608637    0.8536352668305928    0.2827926461567695 C
   0.2494013098311967    0.8955777356745912    0.2813519816464882 C
   0.2505524570421096    0.9789108267717982    0.2795987070525958 C
  -0.0012908771610580    0.7704914833824903    0.2886298201391330 C
   0.5017791089503182    0.1040298213046316    0.2826438360065547 C
   0.7519009828265485    0.1456966365721668    0.2850103475178240 C
   0.7526026092907827    0.2285046398466026    0.2932133741960718 C
   0.5008399611288112    0.0206643072727354    0.2797864456928624 C
   0.5018508530888052    0.3514102677825461    0.3164560325625114 C
   0.7548885460631356    0.3959942046473759    0.3216330525035664 C
   0.7526706105317797    0.4831542202305655    0.3263279305229779 C
   0.5043516060434958    0.2697886138531265    0.3002407171898995 C
   0.5011273085060356    0.6063693241374039    0.3170049812700968 C
   0.7477196073405151    0.7295751930415396    0.2925951085115666 C
   0.4986519967796603    0.8537115782042948    0.2833938889024645 C
   0.7494536579356607    0.8953545648917649    0.2809431174848097 C
   0.7505632839831324    0.9788056842533616    0.2793393237265264 C
   0.4972848205217532    0.7706480218916811    0.2898986592584198 C
   0.7463274554435739    0.6474289997654165    0.3032301208865430 C
   0.2475074270380105    0.6461348333880952    0.3080034599294081 C
   0.0008171127148540    0.0207315736814139    0.2796425510225763 C
   0.5202013140447954    0.5283751393052539    0.3413722124705838 C
   0.9872023057014739    0.5253163615194277    0.3147881061134007 N
   0.2534866697084552    0.3853291154216966    0.3279055497740975 N
   0.2215666804345440    0.4801770911880674    0.3856503792158411 Mn
