Title
1.0
   4.9440799999999996    0.0000000000000000    0.0000000000000000
   0.0000000000000000    8.5647549999999999    0.0000000000000000
   0.0000000000000000    0.0000000000000000   20.0000000000000000
C N Zn
12 3 1
direct
   0.2500000000000000    0.2125909291082546    0.0923251391510948 C
  -0.0056281576613643    0.2936848331331640    0.0929744005073712 C
   0.2500000000000000    0.0450129566869664    0.0902589941249481 C
   0.0044527367650354    0.7942098482994806    0.1010966141946077 C
   0.0000948782082323    0.9597390973508724    0.0903228614911185 C
   0.7500000000000000    0.2072489487873892    0.0862016933093075 C
   0.5056281576613644    0.2936848331331640    0.0929744005073712 C
   0.7500000000000000    0.0412150491093492    0.0861111387420270 C
   0.7500000000000000    0.7046019833099186    0.1038342498066734 C
   0.4955472632349646    0.7942098482994806    0.1010966141946077 C
   0.7500000000000000    0.5308291519565541    0.1021464166569719 C
   0.4999051217917674    0.9597390973508724    0.0903228614911185 C
   0.5133363614139449    0.4510230279334589    0.1026287693053906 N
  -0.0133363614139447    0.4510230279334589    0.1026287693053906 N
   0.2500000000000000    0.7243177099452601    0.1120995494623318 N
   0.2500000000000000    0.5368696576623572    0.1754895277496769 Zn
