Title
1.0
   9.8694509999999998    0.0000000000000000    0.0000000000000000
   0.0000000000000000    8.5490480000000009    0.0000000000000000
   0.0000000000000000    0.0000000000000000   20.0000000000000000
C N Ti
25 5 1
direct
   0.0562584845613068    0.0907721321137467    0.0936759181095830 C
   0.9307039278227743    0.1735649113081129    0.0975301716804535 C
   0.0581633197511410    0.9232836951469235    0.0936359350816943 C
   0.9325369410358809    0.3410910379238863    0.0993988257013788 C
   0.0580831410320446    0.5898509488732289    0.0953649914476409 C
   0.9337400949943911    0.6736609854082848    0.0994606439532784 C
   0.0578026035339695    0.4229395413179198    0.0952937876435418 C
   0.9329904770591997    0.8408107730545065    0.0977780291971637 C
   0.3082551359153268    0.0873867186864020    0.0894432924670229 C
   0.1820780683639985    0.1721810283514902    0.0910455638229902 C
   0.1817662248215083    0.3385967770714337    0.0914888803257840 C
   0.3079800426539482    0.5895015998920012    0.0856287964436005 C
   0.1825189495857558    0.6728926279940561    0.0911396980998756 C
   0.3079561719863769    0.4201727664934028    0.0872589844367756 C
   0.1822554291451516    0.8388041001284818    0.0906441156903090 C
   0.4306198190752623    0.1711730022750502    0.0907909063562278 C
   0.5554429858705948    0.9190575588513262    0.0968823399678248 C
   0.4301851414948795    0.8372866406429327    0.0890711601857999 C
   0.8040304465699131    0.0902276023626526    0.0989204158174505 C
   0.6798451854692229    0.1778961168919256    0.1021657876774366 C
   0.8064821294883552    0.9225438317294343    0.0993762067944711 C
   0.6823517966032462    0.3426046200339232    0.1102981184073117 C
   0.8100111068138324    0.5930691359837352    0.1060927605828325 C
   0.8081669582466712    0.4240525945955966    0.1060114168454538 C
   0.6824047906190189    0.8346690635697246    0.1027757890308900 C
   0.5560324360458134    0.0912016727780409    0.0967261371412769 N
   0.4282146699381352    0.3325046910995688    0.0889521210254124 N
   0.6878907826761417    0.6730001490363977    0.1111825321455335 N
   0.4275508755500504    0.6779081304906306    0.0828427983023042 N
   0.3071046416087556    0.9212716098671976    0.0886842478919869 N
   0.5337122216673419    0.5068989360279994    0.1314046277267315 Ti
