Title
1.0
   4.9440799999999996    0.0000000000000000    0.0000000000000000
   0.0000000000000000    8.5647549999999999    0.0000000000000000
   0.0000000000000000    0.0000000000000000   20.0000000000000000
C N Re
11 4 1
direct
  -0.0030626692555738    0.2920584769303495    0.0903920448518282 C
   0.2500000000000000    0.0445346029308993    0.0877479856021520 C
   0.0007358367029104    0.7963936865718201    0.0979302727595211 C
   0.0000271588576463    0.9611986331691612    0.0860497406843720 C
   0.7500000000000000    0.2083003159839009    0.0807493797942280 C
   0.5030626692555739    0.2920584769303495    0.0903920448518282 C
   0.7500000000000000    0.0427663024310058    0.0791289899546164 C
   0.7500000000000000    0.7045263431392693    0.1013845995550050 C
   0.4992641632970894    0.7963936865718201    0.0979302727595211 C
   0.7500000000000000    0.5329836661852909    0.1104337966356009 C
   0.4999728411423537    0.9611986331691612    0.0860497406843720 C
   0.5147551996360722    0.4421577581829809    0.1144607785357358 N
  -0.0147551996360716    0.4421577581829809    0.1144607785357358 N
   0.2500000000000000    0.7290272343896022    0.1150326991628618 N
   0.2500000000000000    0.2112453848128318    0.0893865423847441 N
   0.2500000000000000    0.5429990404185768    0.1709823332478873 Re
