Title
1.0
   9.8694509999999998    0.0000000000000000    0.0000000000000000
   0.0000000000000000    8.5490480000000009    0.0000000000000000
   0.0000000000000000    0.0000000000000000   20.0000000000000000
C N W
27 3 1
direct
   0.0556951321640416    0.0896984452513489    0.0869577488224186 C
   0.9311309735603981    0.1716607805221460    0.0890866827296319 C
   0.0570017424899699    0.9231666676696917    0.0871333272072166 C
   0.9340241396951301    0.3388205109008626    0.0880409198345365 C
   0.0577284084766006    0.5900854570037013    0.0832141280167436 C
   0.9337342060721200    0.6734959937952409    0.0875375210004111 C
   0.0580030492746660    0.4230046469145123    0.0832374173480946 C
   0.9312520988496280    0.8399109251742050    0.0887110403932253 C
   0.3069353915234261    0.0894510607562112    0.0913898452652657 C
   0.1811781397071967    0.1715916056545053    0.0866859837103966 C
   0.1815301938885108    0.3387726691338545    0.0844846451855724 C
   0.3036742091105456    0.5899062055995017    0.0897876749777907 C
   0.1814454565106390    0.6743401943339594    0.0845604394535318 C
   0.3043208666081706    0.4232850679055609    0.0899015563230219 C
   0.1812427388402064    0.8405791639132096    0.0871524331151960 C
   0.5542113856956845    0.0916628888841923    0.1011366421273261 C
   0.4293748631767782    0.1768995630920141    0.0983439652397946 C
   0.5527688734550508    0.9209252776914746    0.1005569777385980 C
   0.4282004504928745    0.8354920608328898    0.0981919413151140 C
   0.8044471483334815    0.0894006724321804    0.0938438038963641 C
   0.6806111800551313    0.1757368079525476    0.1011444554180749 C
   0.8043552871999999    0.9216599575783987    0.0934312610120208 C
   0.6880961857573489    0.3426165527951864    0.1088323772246093 C
   0.8121526249266455    0.5895932939078742    0.0953414213596737 C
   0.6869249531403705    0.6681872303614232    0.1059126514849510 C
   0.8126227645548322    0.4219454336864957    0.0962302731186797 C
   0.6794944647642369    0.8348948008876592    0.0998433998980057 C
   0.4245676989619543    0.3423079799191809    0.1021532238291024 N
   0.4227168421979568    0.6733708243847061    0.1026449333923068 N
   0.3070639714867846    0.9230057696088277    0.0913256796123581 N
   0.5566295590296353    0.5054064914564413    0.1441506299500162 W
