Title
1.0
   8.5490480000000009    0.0000000000000000    0.0000000000000000
   0.0000000000000000    8.5490480000000009    0.0000000000000000
   0.0000000000000000    0.0000000000000000   20.0000000000000000
C N Ti
23 1 1
direct
   0.9105214942720375    0.2054893156477323    0.0954844992307945 C
   0.9099694037949315    0.5030258075490152    0.0960956630408214 C
   0.9125121058878960    0.8011453150632665    0.0953040976527318 C
   0.1975828882250643    0.0826390506187982    0.0952826741953665 C
   0.0751073953801603    0.2021972998155090    0.0954913466053570 C
   0.1589996053268475    0.6488111086436154    0.0963719296019230 C
   0.0773863167023087    0.5019962422234462    0.0961289109925015 C
   0.1588230664800380    0.3550609832793414    0.0967715592688206 C
   0.0783473465172470    0.7990945076205613    0.0951904483535362 C
   0.4921215254690984    0.0853439844574684    0.0960302594627946 C
   0.3447737860499780    0.1638586967079563    0.0964310851709199 C
   0.4915513808149432    0.9180224863763856    0.0960209951571185 C
   0.3455201491780286    0.8360045760111217    0.0964275051061016 C
   0.7880681431550419    0.0841921747086555    0.0953867693456160 C
   0.6378427394196957    0.1669375591605545    0.0963219285060419 C
   0.7890994985272869    0.9209114123296744    0.0954179531060567 C
   0.8308574617726588    0.6505814247136219    0.0963720606378771 C
   0.8285043840178890    0.3557962873805449    0.0964138257347606 C
   0.6380379722360606    0.8363030944689739    0.0965292614027178 C
   0.3233900304812681    0.3328430358036096    0.0993314610595659 C
   0.3243092251611533    0.6713738140963742    0.0986199171497558 C
   0.6616959956349949    0.3331777165962743    0.0985338358243688 C
   0.6626800036314812    0.6716676598006934    0.0989046827574740 C
   0.1977439973803748    0.9169605306051312    0.0951231333818676 N
   0.4899660844835020    0.5013559163216800    0.1297191972550910 Ti
