Title
1.0
   8.5490480000000009    0.0000000000000000    0.0000000000000000
   0.0000000000000000    8.5490480000000009    0.0000000000000000
   0.0000000000000000    0.0000000000000000   20.0000000000000000
C N Pd
18 6 1
direct
   0.9078095988316773    0.2059979138053180    0.0974932880345598 C
   0.9110202435636852    0.8015024439397898    0.0974180029711312 C
   0.1966876525388727    0.0844382198498255    0.0976718137365743 C
   0.0772157374886453    0.2004434215465855    0.0975619544302074 C
   0.1565465200512382    0.6516368049858331    0.0978049611535360 C
   0.0754432245822835    0.5003535796633091    0.0977334855261250 C
   0.1577425421575336    0.3544448774169228    0.0976843020707544 C
   0.0791788616167488    0.7996054908324731    0.0975880771209853 C
   0.3485926753915267    0.1672880054836635    0.0978253698522064 C
   0.4943004910935507    0.9163634237951463    0.0978488095400420 C
   0.3431438478465403    0.8351137649814850    0.0979546968732335 C
   0.7885876343703148    0.0867487492476586    0.0974586288452461 C
   0.6404962786868624    0.1669863687271925    0.0977739232405841 C
   0.7908732749825101    0.9191768213927916    0.0974203690501643 C
   0.8278082395223855    0.6523079164287037    0.0977029419966371 C
   0.8247648730790145    0.3529181946526623    0.0977494738543868 C
   0.6431996997443648    0.8364876203892362    0.0977256487800688 C
   0.3260574932652899    0.3316448096594636    0.0978180701694455 C
   0.4949192611478885    0.0856119135180954    0.0978833646584065 N
   0.9041958127853610    0.5024432959826085    0.0977900049054364 N
   0.3182657370465352    0.6759272691184249    0.0980537195811078 N
   0.6615926947130587    0.3283832960224061    0.0980261783389138 N
   0.6689872131699550    0.6741601516208041    0.0979434483721041 N
   0.1972380585205951    0.9155037366675957    0.0977598427664555 N
   0.4907443338035564    0.4993019102720261    0.0980146241316610 Pd
