Title
1.0
   4.9440799999999996    0.0000000000000000    0.0000000000000000
   0.0000000000000000    8.5647549999999999    0.0000000000000000
   0.0000000000000000    0.0000000000000000   20.0000000000000000
C N Tc
9 5 1
direct
  -0.0025427185219669    0.2942464067578097    0.0971703020725194 C
   0.2500000000000000    0.0393103214586842    0.0987077937850897 C
  -0.0022526098643652    0.9568663679294502    0.0980335667690061 C
   0.7500000000000000    0.2069552589749201    0.0933583501279366 C
   0.5025427185219669    0.2942464067578097    0.0971703020725194 C
   0.7500000000000000    0.0414098901876685    0.0941096724924373 C
   0.7500000000000000    0.7115497853566682    0.0994805709216989 C
   0.7500000000000000    0.5375504048969021    0.0990670723788022 C
   0.5022526098643653    0.9568663679294502    0.0980335667690061 C
   0.5108554243562139    0.4527728229607950    0.1026818358384171 N
  -0.0108554243562137    0.4527728229607950    0.1026818358384171 N
  -0.0114786557294387    0.7951043570494218    0.1029143440794579 N
   0.5114786557294384    0.7951043570494218    0.1029143440794579 N
   0.2500000000000000    0.2124318849538849    0.0984669180601734 N
   0.2500000000000000    0.6244935447763202    0.1231895247150642 Tc
