Title
1.0
   9.8694509999999998    0.0000000000000000    0.0000000000000000
   0.0000000000000000    8.5490480000000009    0.0000000000000000
   0.0000000000000000    0.0000000000000000   20.0000000000000000
C N Zn
28 3 1
direct
   0.0558618040045838    0.0906464223676833    0.0780097226037849 C
   0.9309608420123796    0.1736826886907841    0.0797027056726046 C
   0.0573230144339990    0.9227815300679489    0.0776586829552834 C
   0.9299736092626187    0.3413663831777972    0.0856004621647035 C
   0.0565427672211134    0.5915693237937024    0.0831013220739708 C
   0.0561703856282470    0.4245423918059690    0.0845083274045847 C
   0.9326193121320843    0.8380362449816928    0.0803337128905916 C
   0.3055130380556683    0.0885660429592445    0.0845577495699599 C
   0.1822147572214097    0.1736566067849366    0.0824293772548582 C
   0.1827411475082509    0.3413779466990929    0.0879003365686922 C
   0.3009825444820029    0.5911208343443232    0.1060502552430908 C
   0.1810440282115376    0.6745344889301791    0.0868103047542599 C
   0.3060602695320537    0.4216521303585689    0.1029168246049274 C
   0.1824776965820280    0.8414716883200791    0.0820518665095944 C
   0.5551380898129228    0.0850787093886933    0.0916312862261332 C
   0.5545220225966752    0.9217897653318503    0.1021880645911075 C
   0.4311555611167640    0.3293494717860476    0.1090961032711453 C
   0.4241294035527251    0.8418928500322170    0.1081022150330727 C
   0.8063871232899985    0.0881890810606937    0.0803677874046670 C
   0.6805841387149099    0.1700624545634667    0.0878222162121626 C
   0.8068291647590106    0.9219489186310426    0.0832432756204954 C
   0.6814784808987562    0.3329772009522639    0.1036230024846974 C
   0.8126923576521480    0.5944973276480980    0.1040387847458064 C
   0.8069674045114086    0.4233738484418813    0.0988462730098016 C
   0.6856410719912152    0.8419108273765324    0.1025726573303001 C
   0.4075521300802549    0.6890562648574990    0.1291743983476851 C
   0.5558784129245957    0.3927352733000681    0.1268462331718939 C
   0.7044322596988211    0.6870381099342684    0.1250385629340316 C
   0.3053996006360394    0.9257433995819210    0.0856430549512151 N
   0.4288170385371019    0.1665783082552975    0.0913112748627264 N
   0.9336363191515005    0.6731721358783420    0.0843806311736647 N
   0.5579132037871828    0.5898473296978162    0.1701175283585039 Zn
