Title
1.0
   8.5490480000000009    0.0000000000000000    0.0000000000000000
   0.0000000000000000    8.5490480000000009    0.0000000000000000
   0.0000000000000000    0.0000000000000000   20.0000000000000000
C N Ir
20 4 1
direct
   0.9100410200963299    0.2085545549317237    0.0975260813388224 C
   0.9113652270079134    0.7994741458303209    0.0976914745821304 C
   0.1974549885562891    0.0836522393093211    0.0978344689474136 C
   0.0756426835110350    0.2037604642962136    0.0977671432499901 C
   0.1568287990222102    0.6496607324599474    0.0976650842581282 C
   0.0768605093693363    0.5022459754137746    0.0977762342844720 C
   0.1576554847206441    0.3532905922383421    0.0979535164551493 C
   0.0776778634871142    0.7988481284589031    0.0976501317938982 C
   0.4937688517288436    0.0862578821057166    0.0977439255674825 C
   0.3434194979106795    0.1662600147153327    0.0979675244106584 C
   0.4925682667766703    0.9161655317938182    0.0977101566944478 C
   0.3450879063252809    0.8347447159564692    0.0976923572675159 C
   0.7866369311088566    0.0854465277884715    0.0975088610922249 C
   0.6393897445093022    0.1670521158993543    0.0975986047484684 C
   0.7880379638856224    0.9187504092313669    0.0976552417119080 C
   0.8296536522063844    0.6499162350612616    0.0977759643603264 C
   0.8290987928330326    0.3572114584073992    0.0975668474517745 C
   0.6410155060203160    0.8345421120585906    0.0977857149107950 C
   0.3234722208150528    0.6702609047861361    0.0977044020822985 C
   0.6609612926516512    0.3375956990566446    0.0976642388566871 C
   0.9088823600801145    0.5027385957251047    0.0977292326589014 N
   0.3203832929814363    0.3304544603073661    0.0981323288753122 N
   0.6667563316836834    0.6699039762293961    0.0978956051434620 N
   0.1974773311200425    0.9174617204206665    0.0977215819384780 N
   0.4952754815921447    0.5005408075183726    0.0979882773192351 Ir
