Title
1.0
   4.9440799999999996    0.0000000000000000    0.0000000000000000
   0.0000000000000000    8.5647549999999999    0.0000000000000000
   0.0000000000000000    0.0000000000000000   20.0000000000000000
C N W
12 3 1
direct
  -0.0006978726881005    0.2878123046250270    0.0867493663479851 C
   0.2524733316077077    0.0437680238705800    0.0843156007374200 C
   0.0034125859129243    0.7975998922911444    0.0948250115488841 C
   0.0017491821064669    0.9617155100436201    0.0827361955112160 C
   0.7472962654463284    0.2075002632567655    0.0830626705925325 C
   0.5016021273570392    0.2918391828624363    0.0978930760028652 C
   0.7507186906965374    0.0425906599596604    0.0794545784641087 C
   0.7564497571117247    0.7057790136407764    0.1008915555779197 C
   0.5068033873506732    0.7948044438329906    0.0962108523044306 C
   0.7693128126526914    0.5323879899114260    0.1216912046387205 C
   0.5031693446698723    0.9601038811544950    0.0850347718966797 C
   0.5108312490904439    0.4402291432881426    0.1314181192722045 C
  -0.0027318387041556    0.4425258210258967    0.0991905068025791 N
   0.2542571700602939    0.7294484234997056    0.1114277029550656 N
   0.2511113290835114    0.2091200394850747    0.0871622062885109 N
   0.1942424782460422    0.5527754072522593    0.1704485810588871 W
