Title
1.0
   8.5490480000000009    0.0000000000000000    0.0000000000000000
   0.0000000000000000    8.5490480000000009    0.0000000000000000
   0.0000000000000000    0.0000000000000000   20.0000000000000000
C N Zn
22 2 1
direct
   0.9093802179129546    0.2060226590397501    0.0980225397358928 C
   0.9065312724287370    0.5055341383222002    0.0978705574556782 C
   0.9132267237665798    0.8036587927628114    0.0977918772907755 C
   0.1970540971814365    0.0796184746211992    0.0980760032164246 C
   0.0723638447872799    0.2014276138865790    0.0980552299301923 C
   0.1584176464664879    0.6486057147543960    0.0980764695452715 C
   0.0749525255360553    0.5030888100902302    0.0978884349437815 C
   0.1554872568475807    0.3549900144303506    0.0978480094261947 C
   0.0800387917006546    0.7987984994586790    0.0979997898255463 C
   0.4931385215098601    0.0827257499445050    0.0978803963822125 C
   0.3441546833792546    0.1602670706522356    0.0978511911433446 C
   0.4941545631599589    0.9149843284019926    0.0979321330553740 C
   0.3484629285050719    0.8320842921866641    0.0982369537233652 C
   0.7874328228274741    0.0858780101548458    0.0979076968929331 C
   0.6378990612570983    0.1659142483293554    0.0980247398851968 C
   0.7916378094630544    0.9219929528150732    0.0977820699377527 C
   0.8304604045269790    0.6558553824158013    0.0976897016639686 C
   0.8253200090218343    0.3591721690003308    0.0980921301165055 C
   0.6431382445378953    0.8368536031764426    0.0977147391926547 C
   0.3164486478106648    0.3266198386843345    0.0974161597406377 C
   0.3235670754870045    0.6705516701809379    0.0984012054793108 C
   0.6617707251933042    0.3326289081549657    0.0983593867506810 C
   0.6695898501157317    0.6788781842464243    0.0975457504122551 N
   0.1977654248035741    0.9152886194688615    0.0982072033590465 N
   0.4930188517734664    0.5033502548210470    0.0980346308949860 Zn
