Title
1.0
   4.9440799999999996    0.0000000000000000    0.0000000000000000
   0.0000000000000000    8.5647549999999999    0.0000000000000000
   0.0000000000000000    0.0000000000000000   20.0000000000000000
C N Mn
10 4 1
direct
  -0.0026618562801433    0.2945184511197718    0.1001176832828221 C
   0.2487583587819445    0.0382627963236163    0.1004227127959471 C
  -0.0023966402321185    0.9564103668668237    0.1000047314716023 C
   0.7476760006786227    0.2073545158790058    0.1003404316040903 C
   0.4978045663081064    0.2943997948984591    0.1008745146104235 C
   0.7490656975412183    0.0408816136468284    0.1003017548326379 C
   0.7550804330135559    0.7130285122015747    0.1004815956103207 C
   0.7533092965549418    0.5401152056632917    0.1005851992822567 C
   0.5009621482780939    0.9545996720471916    0.1008371199718315 C
   0.5063702996971888    0.4586985442862694    0.1016660329428152 C
  -0.0038310276118383    0.4548834998842987    0.0996637323076577 N
  -0.0085037956397696    0.7944476769754295    0.0993930377939032 N
   0.5117952214770596    0.7909387834134504    0.1016624966496133 N
   0.2472109539709350    0.2100463871607325    0.1004817865553876 N
   0.2493603434622026    0.6230951796332578    0.1011471702886944 Mn
