Title
1.0
   4.9440799999999996    0.0000000000000000    0.0000000000000000
   0.0000000000000000    8.5647549999999999    0.0000000000000000
   0.0000000000000000    0.0000000000000000   20.0000000000000000
C Os
15 1
direct
   0.2500000000000000    0.2076477725544245    0.0908265352625483 C
  -0.0026405288113193    0.2878286939756346    0.0956269391816709 C
   0.2500000000000000    0.0423067681465540    0.0834364332988777 C
  -0.0017555620455599    0.7960255366179009    0.0979788272256983 C
  -0.0009178862587193    0.9592437191792464    0.0841000899144821 C
   0.7500000000000000    0.2069290986544952    0.0856315535713757 C
   0.5026405288113194    0.2878286939756346    0.0956269391816709 C
   0.7500000000000000    0.0412832731490968    0.0802109767129415 C
   0.7500000000000000    0.7105629386502672    0.1032654582200727 C
   0.5017555620455599    0.7960255366179009    0.0979788272256983 C
   0.7500000000000000    0.5419098012773863    0.1076693001759484 C
   0.5009178862587197    0.9592437191792464    0.0841000899144821 C
   0.5169430519377536    0.4476868673312323    0.1155280437136725 C
  -0.0169430519377532    0.4476868673312323    0.1155280437136725 C
   0.2500000000000000    0.7261637171743406    0.1156729903739298 C
   0.2500000000000000    0.5416269961854058    0.1693309523132655 Os
