Title
1.0
   9.8694509999999998    0.0000000000000000    0.0000000000000000
   0.0000000000000000    8.5490480000000009    0.0000000000000000
   0.0000000000000000    0.0000000000000000   20.0000000000000000
C N Cr
27 3 1
direct
   0.0557625354619118    0.0881751503865189    0.0919551174002381 C
   0.9312562790803136    0.1715067693969609    0.0944282290872401 C
   0.0571386864420413    0.9220870503753679    0.0923132589155262 C
   0.9329809446504526    0.3392173994178891    0.0959243082165667 C
   0.0569387230494477    0.5905249668359158    0.0947185213611724 C
   0.0572237914272683    0.4240837663593507    0.0941988076497928 C
   0.9317965698284444    0.8382480076063742    0.0950667563629878 C
   0.3070332840357974    0.0878126337041824    0.0877075068135456 C
   0.1824488586621929    0.1719445700706453    0.0900336816043281 C
   0.1817116749508055    0.3391695876953033    0.0915108278346619 C
   0.3063423664887093    0.5905417246574634    0.0888263003950117 C
   0.1813188863645436    0.6745825047024152    0.0925671339647978 C
   0.3069342186932786    0.4207074435913571    0.0882743045675597 C
   0.1830065195550480    0.8403938447387603    0.0910614216901582 C
   0.4334439931684341    0.1711757139805886    0.0880334119562973 C
   0.5568702368228812    0.9242806554207729    0.0949662155529686 C
   0.4305883890432032    0.3338477738492018    0.0874716507938060 C
   0.4287548389441524    0.6786389059866685    0.0885835070604703 C
   0.4314796846815950    0.8418158307851695    0.0895072525004700 C
   0.8054379438975414    0.0888887339046037    0.0956180019656272 C
   0.6806430653818045    0.1784520481255526    0.0979929330223152 C
   0.8061693055786699    0.9203425891523820    0.0961596554819203 C
   0.6825117957718279    0.3445426344942255    0.1043256513854213 C
   0.8100871728095576    0.5913238284301973    0.1016579465131652 C
   0.6841729375735958    0.6677282463984073    0.1060522372888915 C
   0.8107489260303036    0.4215025696987386    0.1008989772244359 C
   0.6797446506428252    0.8352876616030158    0.0992516200555690 C
   0.9331581148300125    0.6722728896902090    0.0964554585947862 N
   0.5584882123455861    0.0907062396537494    0.0938991682750224 N
   0.3052041603746435    0.9243434042187575    0.0882833029469241 N
   0.5337382334131142    0.5067298550692769    0.1232218335183490 Cr
