Title
1.0
   9.8694509999999998    0.0000000000000000    0.0000000000000000
   0.0000000000000000    8.5490480000000009    0.0000000000000000
   0.0000000000000000    0.0000000000000000   20.0000000000000000
C N Tc
28 3 1
direct
   0.0562562351512096    0.0922490116480297    0.0830608587642683 C
   0.9306502699998501    0.1746215129227401    0.0851701508938813 C
   0.0562437259085769    0.9249669083093451    0.0827142521755680 C
   0.9293110623081213    0.3415318034181060    0.0888643665566656 C
   0.0562273878640295    0.5894145015202570    0.0852725673706984 C
   0.9324212797104249    0.6739605346085772    0.0873115115898339 C
   0.0562279985946732    0.4233422660880702    0.0872577785776113 C
   0.9323853104845965    0.8407140696416714    0.0853226616339714 C
   0.3058398140282367    0.0894885403632322    0.0862207813810197 C
   0.1818438210581027    0.1746302254048504    0.0851405121049839 C
   0.3049730409498807    0.9234110747640506    0.0878662929215772 C
   0.1831551047066851    0.3415407363852034    0.0888364032391527 C
   0.3034923262886165    0.5932471435803220    0.0986977634815794 C
   0.1800354108012146    0.6739726913256990    0.0872526250250885 C
   0.3093151031757496    0.4244415608233188    0.0973175262590679 C
   0.1800887494804820    0.8407293899349313    0.0852801602221344 C
   0.5562574783913976    0.0832017294611845    0.0943587591568720 C
   0.4315939378479233    0.1688176291284381    0.0920077686455427 C
   0.5562540892132348    0.9166775169784648    0.0993643030748834 C
   0.4331434380279437    0.3332397167417085    0.1006178686610045 C
   0.4262838133731452    0.8389326247765463    0.0995794131622533 C
   0.8066630358005454    0.0894662279959896    0.0862587653732785 C
   0.6809186586910337    0.1688165772375420    0.0920395051358573 C
   0.8075113281059741    0.9233753366691048    0.0879283580757774 C
   0.6793365641597855    0.3332462985562553    0.1006440064079771 C
   0.8089997076508775    0.5932143953430641    0.0988154263366258 C
   0.8031551517125989    0.4244279058752244    0.0973706811711626 C
   0.6862136947817651    0.8388793090979961    0.0996584418021083 C
   0.4155032746799976    0.6823299705973820    0.1151731525011148 N
   0.5562260559268963    0.4015866575808032    0.1165235428969107 N
   0.6969865362483302    0.6822926961921040    0.1152977481311304 N
   0.5561255948781078    0.5894794370297970    0.1684510472704334 Tc
