Title
1.0
   4.9440799999999996    0.0000000000000000    0.0000000000000000
   0.0000000000000000   17.1295089999999988    0.0000000000000000
   0.0000000000000000    0.0000000000000000   20.0000000000000000
C N W
26 4 1
direct
   0.0021310844083604    0.1056315851796436    0.2967932876315807 C
   0.2512181464703088    0.1484716929057449    0.2970711281510963 C
   0.2520979184067752    0.2334820341087724    0.2994474162808735 C
   0.0022707023662779    0.2756169563161251    0.3044297910023865 C
  -0.0080007670106275    0.5999141177847103    0.3036721695842644 C
   0.2438280283012191    0.7261280518850368    0.2973902462658350 C
  -0.0014431957923662    0.8529705052312391    0.2969647552732621 C
   0.2483719438680241    0.8950519573534365    0.2965212370655793 C
   0.2498696608227923    0.9793340941485303    0.2962065140005807 C
  -0.0031921961716882    0.7685095909983936    0.2974494501876276 C
   0.5011780830776752    0.1061719474971139    0.2957343369409777 C
   0.7532067746983018    0.1476122543945110    0.2962752355379449 C
   0.7555864359387517    0.2318973912127786    0.2976500109918697 C
   0.4998631019054318    0.0216455646566628    0.2957054801212756 C
   0.7536883041309169    0.3950574004280695    0.3015603300014040 C
   0.7439424688661274    0.4795943051856658    0.3007249085554407 C
   0.5061637783456687    0.2724864776581505    0.2961473097281763 C
   0.4915201550386779    0.6028262489419270    0.2917169443760322 C
   0.7469580182432465    0.7271178861332934    0.2962271987871923 C
   0.4965140914228428    0.8524919290151006    0.2961942261074484 C
   0.7477822841217413    0.8946860671225981    0.2963562091819106 C
   0.7492689914098654    0.9791763783785875    0.2960571657334695 C
   0.4949775077583698    0.7678221401274946    0.2960547901947901 C
   0.7449452019515070    0.6436167849138181    0.2962608728372844 C
   0.0002673570877339    0.0213267531869935    0.2963668468875502 C
   0.4997487029493314    0.5210682278352508    0.2874323694158787 C
   0.9885577399026464    0.5192576522859768    0.3196732692193234 N
   0.5155033395839580    0.3533939615513440    0.2955858489078585 N
  -0.0067508079799971    0.3575936834378514    0.3160068295181191 N
   0.2402369769454626    0.6421607823982415    0.2979216767902167 N
   0.2996971689326651    0.4392275777269342    0.3334621447227020 W
