Title
1.0
   4.9440799999999996    0.0000000000000000    0.0000000000000000
   0.0000000000000000   17.1295089999999988    0.0000000000000000
   0.0000000000000000    0.0000000000000000   20.0000000000000000
C N Y
28 2 1
direct
   0.0021214583759211    0.1054443552400972    0.2905724210052502 C
   0.2513912341799800    0.1478828696026515    0.2934447626840325 C
   0.2524358180298529    0.2319537099050889    0.3003984618886717 C
  -0.0006535962629668    0.2725915727160059    0.3035231804067400 C
  -0.0052023909219557    0.6038992466603930    0.3076494811817184 C
   0.2477683280081815    0.7279463264567441    0.2939029370709190 C
  -0.0010106161798432    0.8539545912247030    0.2876634443581070 C
   0.2490366505525987    0.8960187935069195    0.2866774964848957 C
   0.2499969188791686    0.9796183605090004    0.2866684969617661 C
  -0.0019880214507959    0.7703773717402228    0.2912190666402434 C
   0.5000498043691769    0.1054319827482715    0.2902970654531855 C
   0.7513263765573790    0.1467390043760949    0.2920167130147180 C
   0.7519585525404260    0.2298679559323763    0.2973977130279963 C
   0.4997319227030761    0.0217226764084666    0.2872396522478740 C
   0.7538785038050229    0.3907195962369531    0.3108058212201684 C
   0.7515991795667655    0.4784059418847210    0.3128692923794099 C
   0.5055430808759585    0.2725606923570699    0.3018453476648303 C
   0.4968762019722704    0.6016743404964328    0.3017462676055018 C
   0.7474597571188000    0.7287193526428318    0.2926749181875509 C
   0.4985719299461374    0.8539582548424055    0.2871320446157010 C
   0.7491158893601502    0.8959689391166118    0.2864379031686766 C
   0.7500243861074525    0.9798540042711722    0.2864183085562730 C
   0.4977875634180229    0.7703787721004977    0.2901581100035963 C
   0.7467673614330079    0.6452696684270951    0.2992090119455317 C
   0.2465081931255659    0.6451348075521187    0.3014840057281497 C
   0.0008053960463793    0.0217193205123102    0.2874435603741787 C
   0.5034241847364447    0.5188867799030137    0.3036647827163947 C
   0.9925516867172702    0.5227712406240561    0.3231164085924886 C
   0.5140411728073166    0.3528188068857833    0.3082011052643073 N
  -0.0081799538140513    0.3521407591835495    0.3131042098946224 N
   0.2662700273972901    0.4369119059363369    0.3700780096564533 Y
