Title
1.0
   8.5490480000000009    0.0000000000000000    0.0000000000000000
   0.0000000000000000    8.5490480000000009    0.0000000000000000
   0.0000000000000000    0.0000000000000000   20.0000000000000000
C N Ni
22 2 1
direct
   0.9104527824018264    0.2080594628477088    0.0976460334899041 C
   0.9127264627022322    0.7985026281896539    0.0976801204146425 C
   0.1988431769698991    0.0831698794727195    0.0977485880193607 C
   0.0746088739795341    0.2040171930438696    0.0977057822989275 C
   0.1590897660666990    0.6482136509317700    0.0978327137945886 C
   0.0756554359772942    0.5013934902125515    0.0978125407350591 C
   0.1576364393941687    0.3558801207605990    0.0978145356323781 C
   0.0781077580406365    0.7982280105934780    0.0977515740239160 C
   0.4933407735499687    0.0861909585181530    0.0977072231423760 C
   0.3454859613200043    0.1664476415408056    0.0978123458311615 C
   0.4926066116096857    0.9171689880060087    0.0976639968773208 C
   0.3462440647788405    0.8334608116850469    0.0977567884526547 C
   0.7866135861858288    0.0852164682140587    0.0976091801149124 C
   0.6380433188741774    0.1696125458505180    0.0976936868200492 C
   0.7873736078407725    0.9198913122872919    0.0976069070416394 C
   0.8291909931900239    0.6476529317052452    0.0977152446324108 C
   0.8268548026053587    0.3582719997825339    0.0977122691756899 C
   0.6386220892075207    0.8339769050462685    0.0976433358900651 C
   0.3251669644605492    0.3365773333222808    0.0979024602968543 C
   0.3255257875941677    0.6672357896141735    0.0978446985518154 C
   0.6595125358217280    0.3395838148207906    0.0977739320502288 C
   0.6611248393404320    0.6652194850122193    0.0977303516324570 C
   0.9097024003485252    0.5027710746508873    0.0977989537095605 N
   0.1985654574090294    0.9170657208251908    0.0977775025889669 N
   0.4943175103310834    0.5009817830661836    0.0979642347830411 Ni
