Title
1.0
   4.9440799999999996    0.0000000000000000    0.0000000000000000
   0.0000000000000000    8.5647549999999999    0.0000000000000000
   0.0000000000000000    0.0000000000000000   20.0000000000000000
C N Y
10 4 1
direct
  -0.0016782936688895    0.2939449642368782    0.0925244922244540 C
   0.2518703511099449    0.0378193826898733    0.0951621225814587 C
   0.0005055279370652    0.9557676560671154    0.0917825033476863 C
   0.7497014730448603    0.2067543633712582    0.0907903403970702 C
   0.5005745427788785    0.2948326143392376    0.0980414414408760 C
   0.7524744250228846    0.0411660881147258    0.0912342662354338 C
   0.7562172543312132    0.7134182968927046    0.0981455703384872 C
   0.7536974129346243    0.5379245759862403    0.1002803064867334 C
   0.5052120993557599    0.9551492257751704    0.0973165852802393 C
   0.5073018212983804    0.4557668924330400    0.1100786293705596 C
  -0.0026916547457978    0.4529253844259948    0.0937096343888811 N
  -0.0050325024111237    0.7935404255057810    0.0896023560206896 N
   0.5163971824108347    0.7941020621345718    0.1080033667421899 N
   0.2486808820240456    0.2098730227680364    0.0956913541217992 N
   0.2167694785773197    0.6286960452593732    0.1556170310234452 Y
