Title
1.0
   4.9440799999999996    0.0000000000000000    0.0000000000000000
   0.0000000000000000    8.5647549999999999    0.0000000000000000
   0.0000000000000000    0.0000000000000000   20.0000000000000000
C Cu
15 1
direct
   0.2500000000000000    0.2074519361309460    0.0930550364329774 C
  -0.0024498357551418    0.2888695793564955    0.0974033147425382 C
   0.2500000000000000    0.0425038778712149    0.0884374763100459 C
  -0.0009033281530374    0.7937747961037722    0.0974353533313342 C
   0.0001393721606461    0.9590115994117773    0.0880324590049673 C
   0.7500000000000000    0.2046336316390794    0.0906726739802761 C
   0.5024498357551420    0.2888695793564955    0.0974033147425382 C
   0.7500000000000000    0.0397665912304738    0.0854503688929769 C
   0.7500000000000000    0.7116274859785002    0.0995837368635740 C
   0.5009033281530373    0.7937747961037722    0.0974353533313342 C
   0.7500000000000000    0.5449030911210646    0.1041844926530995 C
   0.4998606278393539    0.9590115994117773    0.0880324590049673 C
   0.5210492434903150    0.4497980411023989    0.1095421024329171 C
  -0.0210492434903152    0.4497980411023989    0.1095421024329171 C
   0.2500000000000000    0.7239020623328718    0.1117422806235987 C
   0.2500000000000000    0.5423032917469603    0.1645594752199454 Cu
