Title
1.0
   9.8694509999999998    0.0000000000000000    0.0000000000000000
   0.0000000000000000    8.5490480000000009    0.0000000000000000
   0.0000000000000000    0.0000000000000000   20.0000000000000000
C Mo
31 1
direct
   0.0562414862490254    0.0899443558124030    0.0812658851226390 C
   0.9312870493720179    0.1730448831094369    0.0834440010285636 C
   0.0562411748333356    0.9229206046788014    0.0817033430320406 C
   0.9308002907964833    0.3397661878888699    0.0867530018578791 C
   0.0562418031059014    0.5889370581689681    0.0847495388811750 C
   0.9321077618690878    0.6726232610920102    0.0874473918038935 C
   0.0562261832270355    0.4227348611072616    0.0852147816005556 C
   0.9316213981888206    0.8395568821285415    0.0849856531467621 C
   0.3055622622468308    0.0894615794872071    0.0858622101453027 C
   0.1812102229517989    0.1730486084651392    0.0834027702888475 C
   0.3053979011618048    0.9233144207335169    0.0880692188572682 C
   0.1816459173618561    0.3397871077377731    0.0866874689944003 C
   0.3028648807670373    0.5899723727526519    0.0994803976174620 C
   0.1804042182616108    0.6726017707814802    0.0873499944028719 C
   0.3055309204652352    0.4221852533395866    0.0969192581947608 C
   0.1808281059888725    0.8395226203444043    0.0849114531439422 C
   0.5562344252566783    0.0878594770417028    0.0930384560248980 C
   0.4304987878148039    0.1712226720698936    0.0917064351722473 C
   0.5562299921606840    0.9225561315984820    0.0989411372961612 C
   0.4300698817757282    0.3357325764626153    0.1012825898318607 C
   0.4190584064048034    0.6800437296645675    0.1164315085247877 C
   0.5561815969498011    0.4074535547526983    0.1177805174170212 C
   0.4285409549879880    0.8415940819040781    0.1005073658147376 C
   0.8069077416565820    0.0894865000639846    0.0859244277037303 C
   0.6819722644886765    0.1712416852894759    0.0917569908060380 C
   0.8070643461218819    0.9233414231590699    0.0881637306380940 C
   0.6823676349382191    0.3357367770494086    0.1013563216027187 C
   0.8096913822593766    0.5899780836225256    0.0996452338139032 C
   0.6935199813082606    0.6800939872953734    0.1165614699446677 C
   0.8069350773394142    0.4221758447520531    0.0970430109989145 C
   0.6839287821878778    0.8416087030625878    0.1006033333483658 C
   0.5562261675024771    0.5906989445834402    0.1766861029435244 Mo
