Title
1.0
   9.8694509999999998    0.0000000000000000    0.0000000000000000
   0.0000000000000000    8.5490480000000009    0.0000000000000000
   0.0000000000000000    0.0000000000000000   20.0000000000000000
C N Os
29 2 1
direct
   0.0566004294486733    0.0906428466906540    0.0817876602838494 C
   0.9311042619693705    0.1730476382397899    0.0851547061316865 C
   0.0567112860016424    0.9232260488189024    0.0811652688127783 C
   0.9306833204301836    0.3401877882547161    0.0898252675386966 C
   0.0562063547711091    0.5893812888613986    0.0853584955673135 C
   0.9320267408564914    0.6727987129652880    0.0886616890377503 C
   0.0570397562482078    0.4233019811514898    0.0877277258919712 C
   0.9313042464271057    0.8399047704432555    0.0846283573149992 C
   0.3059392652479795    0.0888857943190563    0.0846278025737863 C
   0.1824529609250384    0.1741972254508692    0.0841332253211724 C
   0.3071700216892484    0.9232015048629247    0.0854899722112216 C
   0.1827776684940479    0.3407152921415175    0.0888743432052202 C
   0.3043563956284288    0.5898652102357871    0.0981518753311677 C
   0.1815230856728288    0.6716581702690269    0.0855796935351600 C
   0.1820328353048768    0.8386678166889668    0.0830626673217880 C
   0.5557005946013779    0.0867618272243526    0.0941492802361838 C
   0.4304851869946335    0.1707619775130875    0.0915335732785922 C
   0.4302305303862927    0.3355600191872838    0.1017811160007955 C
   0.4293487764307379    0.8403896693639197    0.0984509630913911 C
   0.8070817269041328    0.0893986514768617    0.0864784578893216 C
   0.6811909873010661    0.1695675924153768    0.0940043775584308 C
   0.8057659660927634    0.9235811137334015    0.0870703283392132 C
   0.6807268224724433    0.3337211624084407    0.1050945131028899 C
   0.8095744138012019    0.5913924088747148    0.1028520516949065 C
   0.8060473602557623    0.4224806476052394    0.1006088612950516 C
   0.6825944944295942    0.8417361587743266    0.0997326213269785 C
   0.4198419050894139    0.6800130622562082    0.1182866521358823 C
   0.5537011047094841    0.4062497445761346    0.1217415995087341 C
   0.6925571426185576    0.6832767192851745    0.1199205187447122 C
   0.5552790787235131    0.9218735068497581    0.0981014195790226 N
   0.3056674322775297    0.4228680579341382    0.0972665255371852 N
   0.5559168477962697    0.5909315911279408    0.1743733906021641 Os
