Title
1.0
   4.9440799999999996    0.0000000000000000    0.0000000000000000
   0.0000000000000000   17.1295089999999988    0.0000000000000000
   0.0000000000000000    0.0000000000000000   20.0000000000000000
C N Mo
29 1 1
direct
  -0.0002705651899814    0.1047820930891919    0.2935645013180213 C
   0.2497307519962719    0.1469429523503070    0.2946685898043245 C
   0.2495700110612527    0.2303131692711246    0.2987470312369288 C
   0.0014011104957619    0.2734889695239802    0.3020752393895235 C
   0.0025409981070404    0.6019142574946813    0.3011713731337355 C
   0.2496411201983490    0.7270125830999936    0.2946390125336110 C
   0.0009503626819661    0.8529273707730723    0.2923876121343023 C
   0.2501197336081420    0.8951616596460776    0.2922026399368982 C
   0.2501621284639496    0.9790392126822998    0.2922233313684380 C
   0.0005870550498219    0.7689611425279166    0.2933918563036030 C
   0.5002752210452267    0.1049430289527190    0.2932293291878395 C
   0.7502583730208825    0.1471182752955969    0.2941585172340174 C
   0.7503973771502293    0.2311000385560546    0.2974524445759536 C
   0.5002592877637235    0.0210449196364700    0.2922802479520022 C
   0.7485388567667962    0.3964192843492954    0.3087723633307130 C
   0.7484045946327547    0.4815607192083035    0.3090002350729290 C
   0.4984656470540043    0.2726637490964817    0.2998294064456448 C
   0.4965916411927433    0.6027175291453699    0.2992116205118242 C
   0.7500815834390059    0.7273767896932517    0.2936380703301051 C
   0.4991369429335177    0.8528773324233034    0.2922252166528601 C
   0.7500218958544493    0.8947562309164366    0.2920766319281412 C
   0.7500472143404685    0.9787428117548191    0.2921212439817704 C
   0.4992214916209647    0.7688289565820122    0.2930958062061060 C
   0.7500444827879006    0.6444595623930904    0.2964346790951052 C
  -0.0000694415857787    0.0209766576452632    0.2924490546864494 C
   0.4969978617745816    0.5210731110241581    0.3061949697457911 C
   0.0025951218382457    0.5202606353122742    0.3108277957856792 C
   0.5011378841803023    0.3554425527870231    0.3062790086896608 C
  -0.0006280986394062    0.3562776877372285    0.3113473051001885 C
   0.2494622558754527    0.6450462622042037    0.2981136997984583 N
   0.2643341004813635    0.4371124548279961    0.3512511665293271 Mo
