Title
1.0
   9.8694509999999998    0.0000000000000000    0.0000000000000000
   0.0000000000000000    8.5490480000000009    0.0000000000000000
   0.0000000000000000    0.0000000000000000   20.0000000000000000
C Y
30 1
direct
   0.0562280780309993    0.0890685837768226    0.0814128420749243 C
   0.9310743555868547    0.1723624730366380    0.0840511765527323 C
   0.0562277617032774    0.9232371039494528    0.0814257972844860 C
   0.9318504204512132    0.3389129855357677    0.0840886614309766 C
   0.0562322564421499    0.5891644891591030    0.0809970423542113 C
   0.9318617509540720    0.6733999352369060    0.0841251135242560 C
   0.0562222936029069    0.4231519139546570    0.0809840476032616 C
   0.9310725631299187    0.8399604494876262    0.0840819738657835 C
   0.3063288364553337    0.0898064310504321    0.0903881653937848 C
   0.1813814914261755    0.1723542094005975    0.0840782368836501 C
   0.3063200097460584    0.9224961083174686    0.0904136906755369 C
   0.1805895594389889    0.3389041575913938    0.0841505227751420 C
   0.3038528531477638    0.5906182315448569    0.0934756153333850 C
   0.1805992756682469    0.6733934234176979    0.0841777832487290 C
   0.3038414227594632    0.4216712072804679    0.0934556253075828 C
   0.1813768517641071    0.8399531206721400    0.0841107885563419 C
   0.5562227530512961    0.0881840472009955    0.1038732998265125 C
   0.4295363039209046    0.1752375699284858    0.1006478580922881 C
   0.5562268149735449    0.9241468947520655    0.1038842674907784 C
   0.4259576697990768    0.3395361319662377    0.1064452673852986 C
   0.4259478858750908    0.6727846232359810    0.1064981578401018 C
   0.4295365658156750    0.8370694043443516    0.1006876522780541 C
   0.8061385318149646    0.0898141311940424    0.0903570495275871 C
   0.6829067000401375    0.1752267851061855    0.1005888494901988 C
   0.8061351811470305    0.9225099924063527    0.0903708120886091 C
   0.6864685743769974    0.3395582344511623    0.1062709444563663 C
   0.8085879952181722    0.5906323551567335    0.0933276536047531 C
   0.6864887028649013    0.6727936523782991    0.1062969174603787 C
   0.8085796945369087    0.4217005793951959    0.0933042901381406 C
   0.6829014066467725    0.8370952788081140    0.1006039562763349 C
   0.5564404396110081    0.5061304962637824    0.1723909411798546 Y
