Title
1.0
   4.9440799999999996    0.0000000000000000    0.0000000000000000
   0.0000000000000000    8.5647549999999999    0.0000000000000000
   0.0000000000000000    0.0000000000000000   20.0000000000000000
C N Hf
12 2 1
direct
   0.2500000000000000    0.2062363095717897    0.0949871496004609 C
   0.0006574290671198    0.2922981314394742    0.0955920910352305 C
   0.2500000000000000    0.0368869496452681    0.0943991833887091 C
  -0.0017705207440848    0.9546096386352736    0.0944560416451826 C
   0.7500000000000000    0.2077491601505910    0.0920897658048423 C
   0.4993425709328800    0.2922981314394742    0.0955920910352305 C
   0.7500000000000000    0.0401792457208442    0.0916363658967042 C
   0.7500000000000000    0.7156408230805784    0.1006384502200479 C
   0.7500000000000000    0.5423724413649312    0.1022976871355598 C
   0.5017705207440846    0.9546096386352736    0.0944560416451826 C
   0.5020074278665606    0.4585397274397709    0.1028163268973264 C
  -0.0020074278665606    0.4585397274397709    0.1028163268973264 C
  -0.0093482549831653    0.7930087270633078    0.0995906100038271 N
   0.5093482549831649    0.7930087270633078    0.0995906100038271 N
   0.2500000000000000    0.6257036213103465    0.1470212587905458 Hf
