Title
1.0
   9.8694509999999998    0.0000000000000000    0.0000000000000000
   0.0000000000000000    8.5490480000000009    0.0000000000000000
   0.0000000000000000    0.0000000000000000   20.0000000000000000
C N Re
25 6 1
direct
   0.0562909329655950    0.0930419568517242    0.0905392003518350 C
   0.9299898137622643    0.1755628536570615    0.0914613771087037 C
   0.0562765524151692    0.9243485885394496    0.0900859431778805 C
   0.9294771403329271    0.3418194044384397    0.0927534399875229 C
   0.0562501829640639    0.5902873023633195    0.0900072594801308 C
   0.9317237960942939    0.6718031999851183    0.0910487643473211 C
   0.0562673634447011    0.4233455121610153    0.0918756983412521 C
   0.9313326677062788    0.8398157922641925    0.0909159241669040 C
   0.3057278555778316    0.0892365927195640    0.0904611422223994 C
   0.1826013699446840    0.1755539357420226    0.0909460176878549 C
   0.3063160147685757    0.9234946512148224    0.0908086025167342 C
   0.1830631321164340    0.3417676695930228    0.0922090353821359 C
   0.3075655131160601    0.5935607350799864    0.0942094695205351 C
   0.1808326024243738    0.6717957582163017    0.0903892835481565 C
   0.1812493780130281    0.8398336501653710    0.0902983875842489 C
   0.5562572832548104    0.0846018577834107    0.0944424799488762 C
   0.4316171544252149    0.1693389838365767    0.0931789657821443 C
   0.4355719063911260    0.3355643047575097    0.0961705498490502 C
   0.4281386425311466    0.8358075008662595    0.0948198538042304 C
   0.8068680833194646    0.0892654963843467    0.0911396160987092 C
   0.6809054992859930    0.1693463531621321    0.0936194243235621 C
   0.8063073628658459    0.9235048690246319    0.0916041830809975 C
   0.6769664423703239    0.3356053181058828    0.0966898277997931 C
   0.8050172571226540    0.5936008883764942    0.0952521699863106 C
   0.6844261379212526    0.8358402880749175    0.0954607131495791 C
   0.4245195973854196    0.6769760467856847    0.1008330074827822 N
   0.5561985077834178    0.4122165416035899    0.1034969916831535 N
   0.6881833769678308    0.6770903546333836    0.1019960855926304 N
   0.5562832317404647    0.9155240681764619    0.0946749866432907 N
   0.3117387125769828    0.4247584745859123    0.0936755158254526 N
   0.8008774888295278    0.4248048696413156    0.0945844501684847 N
   0.5547979995822493    0.5911321812100812    0.1860266333573543 Re
