Title
1.0
   9.8694509999999998    0.0000000000000000    0.0000000000000000
   0.0000000000000000    8.5490480000000009    0.0000000000000000
   0.0000000000000000    0.0000000000000000   20.0000000000000000
C N Re
27 3 1
direct
   0.0552686316310988    0.0884254616737285    0.0858108260250745 C
   0.9305870063054080    0.1713622119873515    0.0867904253122758 C
   0.0570154359875529    0.9218053292187818    0.0865740266807601 C
   0.9323724832669454    0.3386005825886225    0.0856622689409769 C
   0.0558425416436733    0.5903443393116108    0.0849530380053535 C
   0.0559957218318771    0.4239011715348132    0.0840091202502896 C
   0.9309047154274177    0.8382139804899246    0.0880015508295718 C
   0.3084260224639711    0.0895915322198350    0.0914332001468626 C
   0.1822064772370600    0.1713676529600217    0.0868332666390984 C
   0.1805612383150416    0.3387138462992622    0.0860401772743664 C
   0.3019276307797397    0.5895973429130038    0.0930532749079532 C
   0.1800740032191700    0.6747805076316588    0.0873885766680792 C
   0.3029403226828034    0.4221457726601018    0.0925544718512662 C
   0.1826003184691893    0.8411407778209311    0.0882629081769975 C
   0.4328815529251708    0.1761385717012857    0.0980613846621044 C
   0.5555848277981946    0.9230434341333890    0.1012444353810725 C
   0.4287376623697813    0.3434272279501879    0.1035066148603320 C
   0.4262744762344202    0.6702289382758346    0.1058667547406086 C
   0.4309133924735782    0.8372413334781074    0.1001526675998095 C
   0.8040550923156017    0.0888186230173520    0.0917272265787861 C
   0.6799599187816601    0.1775614607227922    0.0985479974963812 C
   0.8052231430058945    0.9199914984728937    0.0925050350220201 C
   0.6844465518202534    0.3455454202466073    0.1045290312156816 C
   0.8113124845898688    0.5904680962426030    0.0938602409495208 C
   0.6863220610964327    0.6666680793178790    0.1059216604756321 C
   0.8111655109124647    0.4219976936714862    0.0926232976591044 C
   0.6788711553853622    0.8353958548899448    0.0999182519852732 C
   0.9323252571443686    0.6723572443706419    0.0868772258908289 N
   0.5570170668691220    0.0919471627359138    0.1004052729446794 N
   0.3068125248653509    0.9226738457381486    0.0920557968774532 N
   0.5545097721515307    0.5073800057253052    0.1457949739518132 Re
