Title
1.0
   4.9440799999999996    0.0000000000000000    0.0000000000000000
   0.0000000000000000    8.5647549999999999    0.0000000000000000
   0.0000000000000000    0.0000000000000000   20.0000000000000000
C N Ta
13 1 1
direct
   0.2506173314925504    0.2069575765127371    0.0941054359437628 C
  -0.0004209011932082    0.2929241352261492    0.0955164313733963 C
   0.2530212524304810    0.0394609885167223    0.0939691688266654 C
   0.0036918884611912    0.9555056937252252    0.0940146796175266 C
   0.7491979925912444    0.2081947651397119    0.0920379201649381 C
   0.4982022664747863    0.2924435403570503    0.0947602674967205 C
   0.7524337498125818    0.0401658288207034    0.0917120829370113 C
   0.7499526816683756    0.7134248424835840    0.1021475107438267 C
   0.7435583150632451    0.5413613376418713    0.1039030577093590 C
   0.5041595595885160    0.9551184247691258    0.0952412213263454 C
   0.4962128907199145    0.4587040000466354    0.1015918935810346 C
  -0.0055281496222936    0.4585125424155561    0.1038330904867092 C
  -0.0020492009763126    0.7903237179740489    0.0991569995028713 C
   0.5077265581436624    0.7935020421916740    0.1026132037990020 N
   0.2492237653452663    0.6250815641792072    0.1433770364908345 Ta
