Title
1.0
   8.5490480000000009    0.0000000000000000    0.0000000000000000
   0.0000000000000000    8.5490480000000009    0.0000000000000000
   0.0000000000000000    0.0000000000000000   20.0000000000000000
C N V
23 1 1
direct
   0.9099337741080660    0.2059705498213757    0.0957033955102806 C
   0.9103638810245670    0.5031216328338082    0.0962441869786202 C
   0.9126236817950496    0.8009703845424256    0.0956607166743318 C
   0.1976665170614945    0.0826180306940325    0.0950912814768171 C
   0.0748739569094270    0.2024418801881994    0.0958522913965873 C
   0.1599955127676460    0.6485159744720805    0.0963263797104969 C
   0.0779638425887380    0.5016590749444932    0.0963844885865701 C
   0.1588327122312410    0.3546325161071166    0.0973495423634207 C
   0.0786845304835819    0.7986394301948301    0.0953891336130713 C
   0.4924137748234381    0.0856144888971781    0.0959245594367167 C
   0.3447609864158171    0.1634166319241887    0.0960702426501500 C
   0.4920791642564051    0.9179416182709083    0.0959927071457609 C
   0.3459192163215382    0.8364182004811540    0.0958109916073406 C
   0.7872936623016661    0.0848619571404301    0.0958274661499262 C
   0.6372426182815488    0.1682097079657299    0.0965845169110942 C
   0.7885233019172300    0.9209657086362514    0.0959625870206082 C
   0.8308944571832897    0.6502839271190158    0.0968867656930151 C
   0.8282261736759899    0.3565522865964927    0.0962900658409003 C
   0.6382366620204215    0.8356540812602052    0.0972023776119309 C
   0.3241494903631340    0.3320543946428086    0.1000979771056179 C
   0.3256160964096408    0.6715331063017487    0.0979205289162807 C
   0.6612147044056162    0.3354068589096091    0.0985241805898617 C
   0.6627550986914361    0.6700286812645720    0.1004078637024285 C
   0.1982471007825588    0.9168190991681159    0.0949306148698640 N
   0.4869010831804436    0.5004597776232357    0.1252701384382882 V
