Title
1.0
   9.8694509999999998    0.0000000000000000    0.0000000000000000
   0.0000000000000000    8.5490480000000009    0.0000000000000000
   0.0000000000000000    0.0000000000000000   20.0000000000000000
C N Zn
26 5 1
direct
   0.0559893267967197    0.0924937756082367    0.0869712410014348 C
   0.9297119308863646    0.1760348271439336    0.0883247322727913 C
   0.0567139169882775    0.9243559713440742    0.0852969322325011 C
   0.9286038638558889    0.3423254579935576    0.0899066139602416 C
   0.0565766494717715    0.5902931762475245    0.0862669356066306 C
   0.9319391462892411    0.6723015021897897    0.0854720748850161 C
   0.0557221856530332    0.4235660552858091    0.0903233164086317 C
   0.9316363891391710    0.8400477251631049    0.0855412233341081 C
   0.3056391784183253    0.0882995808677648    0.0908479055994877 C
   0.1822719505515004    0.1746969090848415    0.0900186529626153 C
   0.3071569736622392    0.9226195736169516    0.0908384987126545 C
   0.1827683273351219    0.3406212682649486    0.0936255403385459 C
   0.3064963648500040    0.5920348740176286    0.1026789602383268 C
   0.1817934338833921    0.6713853053126274    0.0887845144200240 C
   0.1821254063785409    0.8391516599846180    0.0875007144059869 C
   0.5570149286256639    0.0846200198201535    0.0968112883307848 C
   0.4311774306433857    0.1686428576466563    0.0951507811097519 C
   0.4354143042467046    0.3350206067633555    0.0979583280539127 C
   0.4287717392907510    0.8370032109589739    0.1038945581121413 C
   0.8069030093076368    0.0894378402079574    0.0892776165503571 C
   0.6808449538316090    0.1699095567138353    0.0926961936487962 C
   0.8067625793560832    0.9243580475162637    0.0888252968415108 C
   0.6750634615357320    0.3364823465761972    0.0935574304721311 C
   0.8042358857860302    0.5953791837072808    0.0909064025737120 C
   0.6850729772098695    0.8363050569713549    0.0959668275152159 C
   0.4206160400881510    0.6790060986695798    0.1220436513807968 C
   0.5551698952299475    0.4115031919666200    0.0999483594660008 N
   0.6894012389362945    0.6788293093958944    0.0998532569876713 N
   0.5575675603413348    0.9184191304375408    0.1016169275620523 N
   0.3092259847261715    0.4226243432578480    0.1004295871953566 N
   0.7997708256552943    0.4261669133298417    0.0915253009682143 N
   0.5614811410297541    0.5863106239352378    0.1828153368526136 Zn
