Title
1.0
   4.9440799999999996    0.0000000000000000    0.0000000000000000
   0.0000000000000000   17.1295089999999988    0.0000000000000000
   0.0000000000000000    0.0000000000000000   20.0000000000000000
C N Cu
29 2 1
direct
   0.0010887243765665    0.1042427387107500    0.2809897338889306 C
   0.2514798537421740    0.1458227909133681    0.2849410692367073 C
   0.2525931709212637    0.2284619520281778    0.2959975834835493 C
   0.0063912050471573    0.3501787004553193    0.3201238228693490 C
   0.0015659167812707    0.2692137107856601    0.3018472323622975 C
  -0.0087502343030497    0.6052326766444505    0.3103185181428224 C
   0.2468291040592993    0.7284343396076159    0.2933855747647763 C
  -0.0010882104324099    0.8537435194103393    0.2800505337435136 C
   0.2486545770787116    0.8956795784663967    0.2782508758209860 C
   0.2496779132171072    0.9790678599879464    0.2766255395253907 C
  -0.0018502484231011    0.7706204118277100    0.2868542329204980 C
   0.5010610814443792    0.1041924740877446    0.2811131873507626 C
   0.7512983915985263    0.1457417015979874    0.2842061863147000 C
   0.7522307564253949    0.2284532639808684    0.2942359014012610 C
   0.5001025805468607    0.0207892316811732    0.2770841074960649 C
   0.5011131391153715    0.3504887630823629    0.3211423502152117 C
   0.7550960210642148    0.3953747862179577    0.3260016798564844 C
   0.7534604886382832    0.4831224959653931    0.3292107973552508 C
   0.5039774195583504    0.2693451300401807    0.3024574108363142 C
   0.5003056008765301    0.6068909953379503    0.3168240417055773 C
   0.7473106843784775    0.7299450888376298    0.2915320700330549 C
   0.4978685755574515    0.8537488086209457    0.2805898229848572 C
   0.7487015035499341    0.8953473879156393    0.2780058045905856 C
   0.7497443952018884    0.9789689767743993    0.2764043960847645 C
   0.4967144480199021    0.7707379814216727    0.2879948343875057 C
   0.7459046068542685    0.6480236878629930    0.3036979164577884 C
   0.2461705384202972    0.6464138355934739    0.3072771404038396 C
  -0.0000274343826486    0.0208284670112609    0.2769829093341708 C
   0.5222134867384411    0.5295346615714188    0.3410967170888908 C
   0.9865009545894806    0.5260264818832915    0.3182267576901269 N
   0.2534462377431090    0.3828633825371344    0.3351321315964067 N
   0.2370377519965044    0.4810151191407809    0.3839641200575124 Cu
