Title
1.0
   9.8694509999999998    0.0000000000000000    0.0000000000000000
   0.0000000000000000    8.5490480000000009    0.0000000000000000
   0.0000000000000000    0.0000000000000000   20.0000000000000000
C N Os
27 4 1
direct
   0.0562482916620811    0.0921054966988115    0.0834527071218906 C
   0.9306033314458667    0.1745380666846739    0.0863305267590764 C
   0.0562514468117530    0.9243878719518260    0.0833064024753570 C
   0.9293574119367424    0.3415372957850086    0.0909806701957544 C
   0.0562127846440765    0.5895605009053829    0.0877988889543404 C
   0.9319659836338979    0.6735162056810430    0.0894119879178655 C
   0.0562515902682281    0.4229248090588115    0.0894586956998248 C
   0.9317642497290476    0.8402140913328606    0.0862192136070403 C
   0.3056843675992902    0.0894943539457604    0.0858219552325422 C
   0.1819290362923361    0.1745337890998622    0.0856230992348603 C
   0.3062037708887175    0.9240615566339080    0.0863918547809205 C
   0.1831755305516529    0.3414956416453860    0.0901996839120491 C
   0.3049092138749728    0.5930181443855547    0.0988617459140228 C
   0.1805087312811667    0.6735477474108511    0.0886554236087153 C
   0.3100879700344273    0.4243173337527035    0.0980230030413764 C
   0.1807900929789628    0.8402158759853623    0.0855489746852125 C
   0.5562352891264418    0.0835123692165422    0.0962164715022123 C
   0.4319964040555198    0.1677538326734819    0.0937143266512057 C
   0.4331734105647275    0.3322717163777152    0.1027402092506400 C
   0.4277658547871998    0.8393423993061078    0.0963782842063075 C
   0.8069046719255767    0.0894529957144565    0.0867122278931908 C
   0.6805522962088347    0.1677231006091675    0.0943966124623614 C
   0.8063789073191209    0.9240066733195393    0.0872062862742381 C
   0.6793241537460598    0.3322283691572173    0.1034666098184787 C
   0.8076909602201350    0.5930095646709479    0.1000019931317274 C
   0.8024837971476790    0.4242903000469869    0.0991451441958161 C
   0.6847417939907257    0.8392682563488527    0.0969989402982170 C
   0.4190719011227938    0.6843747093006085    0.1122475005038814 N
   0.5560426867908694    0.4001640767194778    0.1199298002858267 N
   0.6935240840560168    0.6844309962605980    0.1132469312183234 N
   0.5562490390272482    0.9171180954799076    0.0974492452013428 N
   0.5555599462778378    0.5918297638405875    0.1697395839653982 Os
