Title
1.0
   4.9440799999999996    0.0000000000000000    0.0000000000000000
   0.0000000000000000    8.5647549999999999    0.0000000000000000
   0.0000000000000000    0.0000000000000000   20.0000000000000000
C N Pt
12 2 1
direct
   0.2500000000000000    0.2056740589557989    0.1004266846690411 C
  -0.0006031364820824    0.2908903084012209    0.1004256178531842 C
   0.2500000000000000    0.0376364943311327    0.1005075136704206 C
  -0.0042543731049358    0.9562382684847749    0.1005529195632798 C
   0.7500000000000000    0.2082529563664375    0.1003987940379970 C
   0.5006031364820823    0.2908903084012209    0.1004256178531842 C
   0.7500000000000000    0.0416012179318431    0.1004597311521622 C
   0.7500000000000000    0.7186285901959621    0.1006669999310791 C
   0.7500000000000000    0.5387818519135488    0.1005739375307554 C
   0.5042543731049359    0.9562382684847749    0.1005529195632798 C
   0.5087571093637346    0.4571179931932854    0.1005151157111390 C
  -0.0087571093637343    0.4571179931932854    0.1005151157111390 C
  -0.0175181290742723    0.7966563408168090    0.1006753033624975 N
   0.5175181290742724    0.7966563408168090    0.1006753033624975 N
   0.2500000000000000    0.6193000085130992    0.1006084260283471 Pt
