Title
1.0
   8.5490480000000009    0.0000000000000000    0.0000000000000000
   0.0000000000000000    8.5490480000000009    0.0000000000000000
   0.0000000000000000    0.0000000000000000   20.0000000000000000
C N W
18 6 1
direct
   0.9087398047245673    0.2054332299733131    0.0974007718705923 C
   0.9110473597762332    0.8011929093495458    0.0974625109829108 C
   0.1955529526552055    0.0835759065511469    0.0977008466847827 C
   0.0757053652910490    0.2007892245129344    0.0975442895059342 C
   0.1555082868260219    0.6519110171765127    0.0977997440237237 C
   0.0775751645853292    0.5007466638167495    0.0977723205591380 C
   0.1552912832899721    0.3505423071261515    0.0978381131949255 C
   0.0782733630305437    0.7995356499246384    0.0975979856822613 C
   0.4934266970007379    0.0882960542183054    0.0978901321443073 C
   0.3428138356426125    0.1649624741367665    0.0980041790761687 C
   0.4928888524969826    0.9163365473168482    0.0977981028418620 C
   0.3431655052356247    0.8366600248910606    0.0978435448311047 C
   0.7890867228757924    0.0871247199084731    0.0974533254083685 C
   0.6423144011682088    0.1679423049463842    0.0977974906278454 C
   0.7897736948128560    0.9188227867245836    0.0974583195922795 C
   0.8309721412935009    0.6514978778671940    0.0976102370857039 C
   0.8292631457289457    0.3537970321277305    0.0976276849137360 C
   0.6432392887893892    0.8365743469287462    0.0976905320789142 C
   0.9073863891036561    0.5023337271745598    0.0977089753879661 N
   0.3174549894464866    0.3267736510682336    0.0981560227480301 N
   0.3177618194433882    0.6775595760562588    0.0979834293022719 N
   0.6683213273910042    0.3318121611698678    0.0979542763497619 N
   0.6705612404510644    0.6729856865936518    0.0978205528674718 N
   0.1966320299710227    0.9160799596722980    0.0977087186177289 N
   0.4926563389697975    0.5015041607680454    0.0980828936221908 W
