Title
1.0
   4.9440799999999996    0.0000000000000000    0.0000000000000000
   0.0000000000000000    8.5647549999999999    0.0000000000000000
   0.0000000000000000    0.0000000000000000   20.0000000000000000
C N Fe
14 1 1
direct
   0.2500000000000000    0.2073644873574080    0.0934451508984682 C
  -0.0022942337216392    0.2882615776586246    0.0972067404695112 C
   0.2500000000000000    0.0425367328319967    0.0886355131675698 C
   0.0018003716379576    0.7955352092172325    0.0987300666647885 C
   0.0002022557301651    0.9591906654065334    0.0887864820192138 C
   0.7500000000000000    0.2057436566662607    0.0901411033459688 C
   0.5022942337216391    0.2882615776586246    0.0972067404695112 C
   0.7500000000000000    0.0402458517539910    0.0859046849645423 C
   0.7500000000000000    0.7098836982637072    0.1023723051635784 C
   0.4981996283620422    0.7955352092172325    0.0987300666647885 C
   0.7500000000000000    0.5414201544822048    0.1057734195418760 C
   0.4997977442698351    0.9591906654065334    0.0887864820192138 C
   0.5122425627925385    0.4506222391696756    0.1105926115339337 C
  -0.0122425627925385    0.4506222391696756    0.1105926115339337 C
   0.2500000000000000    0.7235290930946433    0.1102819082912450 N
   0.2500000000000000    0.5420569426456564    0.1553261132518646 Fe
