Title
1.0
   4.9440799999999996    0.0000000000000000    0.0000000000000000
   0.0000000000000000   17.1295089999999988    0.0000000000000000
   0.0000000000000000    0.0000000000000000   20.0000000000000000
C N V
28 2 1
direct
  -0.0027357514935186    0.1054116803645201    0.2946097359387823 C
   0.2459662690962399    0.1479733649916421    0.2955613551997754 C
   0.2446523237835511    0.2319042470082845    0.2986129564292440 C
  -0.0055383741104319    0.2741220589083253    0.3011444866179088 C
   0.0066633387686789    0.6017393421846901    0.2996852589704011 C
   0.2528034974058306    0.7267925406307613    0.2953700316074595 C
   0.0018926977859552    0.8530077939817632    0.2937328875065102 C
   0.2504879383200211    0.8953173759011972    0.2936865903856763 C
   0.2489410789793276    0.9793775936828630    0.2936869728114415 C
   0.0032395222436383    0.7687463633101453    0.2944085849332791 C
   0.4969175938773742    0.1056786312716527    0.2944719668339478 C
   0.7473184798057992    0.1476493964465454    0.2950315038869085 C
   0.7455326498091955    0.2316361012860126    0.2976125660789797 C
   0.4983043256897622    0.0215826618865675    0.2937417799780182 C
   0.7515122331477333    0.3946157396532783    0.3075765965752756 C
   0.7580192525785835    0.4798612419580600    0.3086847484263673 C
   0.4944429332266120    0.2741026756300325    0.2997942764549446 C
   0.5023822513292162    0.6012247602445940    0.2999838740691423 C
   0.7525985859095685    0.7272508488426284    0.2947151845186677 C
   0.4999127033297283    0.8530098669213581    0.2937481519912024 C
   0.7503891323728913    0.8949727685467155    0.2935230584286231 C
   0.7488388422482213    0.9791630785676254    0.2935341917588135 C
   0.5013480840920934    0.7687814269264881    0.2944189959943736 C
   0.7538757424266762    0.6441625430810306    0.2970627396161291 C
  -0.0014334783033042    0.0213727502704297    0.2938113042403940 C
   0.5027559208756159    0.5193888155461720    0.3076916653704693 C
   0.0098497548510082    0.5199051882438399    0.3064062658151267 C
   0.5017358734324479    0.3567078364390003    0.3047083005276903 C
  -0.0061146402812209    0.3547018815015789    0.3084790790180722 N
   0.2540566041997186    0.6442534385115738    0.2976288102412454 N
   0.2513916146029888    0.4369279872606204    0.3419360797750817 V
