Title
1.0
   4.9440799999999996    0.0000000000000000    0.0000000000000000
   0.0000000000000000   17.1295089999999988    0.0000000000000000
   0.0000000000000000    0.0000000000000000   20.0000000000000000
C N Ir
26 4 1
direct
   0.0003874297794945    0.1054006836542812    0.2977050737043982 C
   0.2501324403419370    0.1482423590997902    0.2985260781470156 C
   0.2503941970675070    0.2325246499500061    0.3001974203793795 C
  -0.0039222265831658    0.2724099546072485    0.3005883206261709 C
  -0.0022538171481814    0.6018959874902432    0.3007563008711089 C
   0.2487555533518079    0.7265530179847066    0.2987992477779132 C
   0.0007468203914667    0.8532520172208309    0.2971119900615312 C
   0.2495020271460923    0.8954147758002418    0.2968689917168660 C
   0.2495625461228364    0.9792092746290225    0.2967046967934016 C
   0.0006213913824942    0.7690961111440632    0.2980349491615533 C
   0.4990176439907087    0.1051520590572837    0.2977904688267409 C
   0.7492758618319183    0.1465541582321323    0.2983465604943195 C
   0.7491122148964907    0.2301745461271406    0.2999286898611102 C
   0.4991533319223905    0.0212750994785751    0.2968885926394774 C
   0.7558475839274185    0.3925092681925761    0.3026228114800957 C
   0.7552962064255396    0.4823744172009810    0.3027434414348979 C
   0.5036526589068846    0.2736989157441345    0.3012582257812588 C
   0.5012109603165640    0.6030596412352170    0.3014980966358330 C
   0.7502533516419700    0.7282806439161409    0.2986420988699968 C
   0.4983181533166381    0.8530027097142464    0.2971908905023701 C
   0.7495713721541208    0.8949296811466043    0.2968478238821641 C
   0.7496631466911470    0.9791557051027622    0.2966783298298407 C
   0.4983050492357100    0.7687924133195777    0.2981682880358624 C
   0.7486089694653746    0.6451896538392273    0.3001959132635980 C
   0.0000120941894671    0.0213874076633810    0.2968369554892690 C
   0.5107595686497393    0.5206575974996140    0.3035196979678598 C
   0.9922269455460095    0.5223390926535915    0.3017445634038474 N
   0.5179119845963061    0.3545601594687089    0.3032583407502821 N
  -0.0144716203742169    0.3525123019262454    0.3015745351480884 N
   0.2489895918852424    0.6435920318439990    0.3003045010312011 N
   0.2533655689322905    0.4381456650574233    0.3037281054324990 Ir
