Title
1.0
   9.8694509999999998    0.0000000000000000    0.0000000000000000
   0.0000000000000000    8.5490480000000009    0.0000000000000000
   0.0000000000000000    0.0000000000000000   20.0000000000000000
C N Cr
23 7 1
direct
   0.0557783344058432    0.0899382423636749    0.0947374258279746 C
   0.9317622019995929    0.1721528834902451    0.0950758043602692 C
   0.0572531618654412    0.9207130732129848    0.0947242449022998 C
   0.9330234859080542    0.3391751397400152    0.0948761759920216 C
   0.0557277818050906    0.5904736989794279    0.0942798079087159 C
   0.0558408365357776    0.4237747312371243    0.0942499554947757 C
   0.9321158915558085    0.8386017023050977    0.0949875878335637 C
   0.3075859878185078    0.0887830332779791    0.0963409788841866 C
   0.1808842481281094    0.1715504989597256    0.0951738129553335 C
   0.1798059399345638    0.3392510190373751    0.0949971919822352 C
   0.3023468325788016    0.5903446031024475    0.0968906931905729 C
   0.1790577977623366    0.6732860496782699    0.0950541375445735 C
   0.3035135614518061    0.4209559760366242    0.0968514900708547 C
   0.1812223655852573    0.8409864843301637    0.0951361739499646 C
   0.4289046755512380    0.1751121474677824    0.0981659540037002 C
   0.5549815121972416    0.9198031047746902    0.0986984201849360 C
   0.4285628062043603    0.8373602641854074    0.0984426418206398 C
   0.8053052884441928    0.0888468289079011    0.0961823238627989 C
   0.6832166973515836    0.1773055078220580    0.0980296201027815 C
   0.8065583734896793    0.9210129162612138    0.0962583074574803 C
   0.8101702637207913    0.5911244742486376    0.0967919759500150 C
   0.8102354472988620    0.4215196942491886    0.0966604268113980 C
   0.6824379894967387    0.8366383832405406    0.0982601896870870 C
   0.9330453738792348    0.6718792387615439    0.0947339391804522 N
   0.5569139279310974    0.0958147143716116    0.0987611009621310 N
   0.4237347196406800    0.3366604901082198    0.0992982265815897 N
   0.4221634353678798    0.6766335431054489    0.0998098509610067 N
   0.6885057668138385    0.3384036256545246    0.0991185051877079 N
   0.6916051105545994    0.6734372437664142    0.0994518581522302 N
   0.3053074599665478    0.9220147139956911    0.0962020373981170 N
   0.5555687247564465    0.5073209733279678    0.1027241407986449 Cr
