Title
1.0
   4.9440799999999996    0.0000000000000000    0.0000000000000000
   0.0000000000000000    8.5647549999999999    0.0000000000000000
   0.0000000000000000    0.0000000000000000   20.0000000000000000
C N Fe
13 1 1
direct
   0.2510786042864910    0.2064330717284239    0.0989478649180055 C
   0.0000660127846209    0.2938200011271860    0.0995888866529445 C
   0.2527105484455496    0.0398404052922115    0.0990194177148255 C
   0.0021337627682273    0.9552643381686708    0.0991508056208693 C
   0.7505120016018038    0.2086617881138474    0.0972714118416102 C
   0.4999658483993376    0.2926166564268884    0.0977449515741664 C
   0.7526596222327172    0.0403105959251572    0.0972120202848262 C
   0.7470937004611079    0.7142459564849418    0.0990747568357761 C
   0.7437891752862743    0.5413092760866042    0.0990292436467865 C
   0.5048563468711590    0.9543428433740299    0.0982856575692863 C
   0.4996350302910723    0.4582703692341658    0.0984831802416673 C
  -0.0053098875875712    0.4603627398000706    0.1029704410036292 C
  -0.0056371337470526    0.7902882891244806    0.1017749343147498 C
   0.5082589369028960    0.7931567470602671    0.0990703723372392 N
   0.2481874310033670    0.6227579220530572    0.1203560554436213 Fe
