Title
1.0
   9.8694509999999998    0.0000000000000000    0.0000000000000000
   0.0000000000000000    8.5490480000000009    0.0000000000000000
   0.0000000000000000    0.0000000000000000   20.0000000000000000
C N Ta
29 2 1
direct
   0.0563582962125483    0.0902906967982479    0.0826916875410054 C
   0.9311827302471978    0.1739156575146737    0.0858628423110201 C
   0.0569415523551116    0.9226839359393907    0.0819669181265030 C
   0.9303882152700506    0.3404491180226304    0.0900842089472298 C
   0.0560474054118747    0.5890867546561303    0.0857995948852709 C
   0.9323146497971506    0.6726362716659493    0.0884523665455723 C
   0.0566233869967043    0.4229426544929725    0.0880809176573635 C
   0.9312890979068583    0.8402052377845406    0.0849189495449386 C
   0.3054378906670594    0.0876733293862432    0.0851651584826608 C
   0.1820431278735299    0.1735162036592156    0.0846727540740505 C
   0.3075152964967057    0.9221204838112380    0.0861582431822851 C
   0.1817007167947438    0.3395746989383879    0.0887149619140985 C
   0.3050339003785435    0.5882526716848664    0.0969426459527759 C
   0.1819565563624883    0.6704650881823413    0.0858286420173824 C
   0.1824361521725219    0.8375213273771097    0.0838219455580907 C
   0.5553265347682302    0.0875523659195719    0.0943771191052500 C
   0.4295618381406972    0.1699729196804342    0.0914411692788833 C
   0.4287778996703373    0.3347783345433533    0.1008136768739377 C
   0.4301460356628636    0.8386121024535318    0.0981039766659463 C
   0.8067683096367732    0.0908891907036726    0.0869603599139832 C
   0.6808443769402740    0.1711469401446827    0.0941336529844453 C
   0.8063023630642235    0.9255047572394982    0.0870397054501692 C
   0.6792873310055544    0.3358323076072610    0.1042085255484772 C
   0.8089498322735527    0.5917140734282507    0.1014184709816912 C
   0.8048882712893277    0.4235891245261003    0.0998453501396497 C
   0.6828656003603152    0.8439617750962412    0.0992704241113964 C
   0.4231203510027570    0.6761378091333525    0.1147938220547753 C
   0.5509614532126738    0.4084437947268721    0.1196843495766476 C
   0.6922552807241084    0.6847856686080586    0.1176703000311813 C
   0.5561769193900002    0.9219773862401598    0.0982043905646818 N
   0.3057190754618558    0.4217242061083558    0.0963853121610232 N
   0.5604185524533731    0.5922891139266664    0.1821625578176299 Ta
