Title
1.0
   8.5490480000000009    0.0000000000000000    0.0000000000000000
   0.0000000000000000    8.5490480000000009    0.0000000000000000
   0.0000000000000000    0.0000000000000000   20.0000000000000000
C N Au
17 7 1
direct
   0.9079624470264195    0.2047765872162558    0.0973435621063939 C
   0.9110789551984674    0.8017278809359095    0.0973991424404071 C
   0.1962973898552241    0.0827570693809737    0.0974967782289176 C
   0.0764910983548595    0.1999498711305172    0.0974131853492640 C
   0.1560835336757510    0.6521724063828320    0.0978065616466316 C
   0.0782280828160745    0.5004670314887149    0.0978254866030029 C
   0.1560579341340283    0.3489126244749168    0.0977584624168158 C
   0.0785020819309996    0.7998097995430541    0.0974975915416349 C
   0.3435836659243013    0.1641621768647847    0.0978501608764570 C
   0.4925776355668871    0.9174571549450591    0.0978215183461115 C
   0.3430522128677070    0.8384583263538666    0.0978724630378152 C
   0.7885187850227208    0.0868593128787226    0.0973541803588894 C
   0.6420540156492667    0.1675894740692229    0.0977905761760398 C
   0.7908045100531275    0.9186783404178908    0.0973804059240281 C
   0.8305803483356320    0.6518527710691410    0.0977554889738206 C
   0.8283897230107659    0.3525727741097942    0.0977572580694673 C
   0.6437830542773721    0.8382585813948972    0.0977214059425338 C
   0.4931352951724587    0.0894756874779581    0.0979192282594909 N
   0.9065814759981351    0.5022316213177698    0.0978709472069738 N
   0.3173656436768410    0.3225765153885612    0.0981062224048691 N
   0.3164823086957585    0.6807939604418544    0.0981347306679434 N
   0.6678891823090678    0.3275444520641802    0.0981315412211888 N
   0.6718539864766079    0.6769264618814306    0.0980160610099062 N
   0.1959480378184790    0.9157106974315233    0.0975837442884951 N
   0.4921105961530407    0.5030684213401684    0.0980982969028821 Au
