Title
1.0
   8.5490480000000009    0.0000000000000000    0.0000000000000000
   0.0000000000000000    8.5490480000000009    0.0000000000000000
   0.0000000000000000    0.0000000000000000   20.0000000000000000
C N Mn
21 3 1
direct
   0.9099410222447392    0.2062611652013125    0.0954471793658081 C
   0.9046290728526676    0.5029761569065445    0.0952996106188225 C
   0.9092031618975415    0.7982665487912057    0.0954596315716359 C
   0.1991023750812695    0.0848086224569144    0.0954838439016135 C
   0.0760532733723295    0.2078223734143505    0.0954537041023348 C
   0.1975422558333680    0.9187056771664344    0.0954876553608897 C
   0.1569577643782124    0.6506192317655777    0.0953338527924840 C
   0.0757319130257102    0.5032573414162069    0.0953188196183483 C
   0.1574234721537067    0.3574265778664930    0.0953588881370196 C
   0.0764251594768060    0.7979707848973318    0.0954647255818999 C
   0.4944484670414294    0.0845347407446392    0.0953609579260297 C
   0.3486514043346083    0.1662440170134047    0.0953848484804743 C
   0.4941776226610609    0.9134239450946564    0.0953520718929541 C
   0.3459917288569372    0.8339098616211811    0.0953518586395248 C
   0.7891796419968290    0.0851852864382150    0.0954612952418494 C
   0.6418087818131742    0.1657382721711215    0.0953188653685732 C
   0.7894925436983010    0.9179643571242491    0.0954614492597453 C
   0.8260478602197444    0.6505687664554245    0.0953067347440750 C
   0.8251499406949384    0.3547481060680364    0.0952985462665958 C
   0.6417648370835568    0.8348208553965638    0.0953149489183167 C
   0.3254197247100864    0.3342071496601040    0.0953067234514285 C
   0.3208582143951210    0.6723396433405772    0.0952019836953420 N
   0.6635598687475324    0.3295970392838971    0.0951678977755082 N
   0.6644437343551570    0.6732344604308937    0.0951737540860590 N
   0.4914081590751662    0.5001590192746784    0.0951351532026451 Mn
