Title
1.0
   9.8694509999999998    0.0000000000000000    0.0000000000000000
   0.0000000000000000    8.5490480000000009    0.0000000000000000
   0.0000000000000000    0.0000000000000000   20.0000000000000000
C N Ir
26 4 1
direct
   0.0543284886342606    0.0876568241093529    0.0821429383515448 C
   0.9301618726518941    0.1715615020720023    0.0829881855636400 C
   0.0573995877488732    0.9214031332161607    0.0837477832475953 C
   0.9339878492186382    0.3392615607920206    0.0829818046763256 C
   0.0568082823009168    0.5905676941599753    0.0818536207745077 C
   0.0568564464104245    0.4245264332781885    0.0799528066068600 C
   0.9318853291965542    0.8389505819608541    0.0866673584618520 C
   0.3052945503544846    0.0878521016610309    0.0917078697770456 C
   0.1806017395856651    0.1695187658377165    0.0847171912208369 C
   0.1802395996092933    0.3374670302077923    0.0835949750680828 C
   0.3014306161573517    0.5867957686307855    0.0950049946490461 C
   0.1809274262549772    0.6732998112245663    0.0853100852694504 C
   0.2999460944949862    0.4176697279173121    0.0957381700323969 C
   0.1829201488566923    0.8399800946154862    0.0861147640315003 C
   0.4272747266708962    0.1760974384737790    0.1022079723477510 C
   0.5542231288312194    0.9241132092860621    0.1046108887979414 C
   0.4230299098594134    0.6699173014976756    0.1096882036868585 C
   0.4300293350481857    0.8379914051855699    0.1020757370640776 C
   0.8034882238279625    0.0900309845071349    0.0891936199799517 C
   0.6810313323466856    0.1792711308176915    0.0978232215132948 C
   0.8056387123177854    0.9208935224384254    0.0920819334765773 C
   0.6897603368199360    0.3450422992971895    0.1054466500516175 C
   0.8160062253516174    0.5929159041764367    0.0983982564999328 C
   0.6920705772327778    0.6709257678474587    0.1145985040336683 C
   0.8155764137551370    0.4234541092123024    0.0940217960582444 C
   0.6815360421491305    0.8383826857439185    0.1040827574687311 C
   0.9345022179086682    0.6738018294189738    0.0867673754057611 N
   0.5538650520582098    0.0953575720952315    0.1028268056546457 N
   0.4176269068835206    0.3348108390790177    0.1117152672569252 N
   0.3063978195028506    0.9220166847902154    0.0916466331502163 N
   0.5582900079610094    0.5093412864496922    0.1312568298231689 Ir
