Title
1.0
   4.9440799999999996    0.0000000000000000    0.0000000000000000
   0.0000000000000000    8.5647549999999999    0.0000000000000000
   0.0000000000000000    0.0000000000000000   20.0000000000000000
C Ta
15 1
direct
   0.2500000000000000    0.2067217616577055    0.0891567961498211 C
  -0.0024290350748252    0.2875605832403799    0.0946048900920452 C
   0.2500000000000000    0.0414151344195611    0.0819955660807654 C
  -0.0021049924928144    0.7967573235154448    0.0977746268228444 C
  -0.0014952871062998    0.9589049400515016    0.0827235132222206 C
   0.7500000000000000    0.2067267833166259    0.0837317571024754 C
   0.5024290350748254    0.2875605832403799    0.0946048900920452 C
   0.7500000000000000    0.0417117527852604    0.0785361151960190 C
   0.7500000000000000    0.7100409259731314    0.1043432864259521 C
   0.5021049924928146    0.7967573235154448    0.0977746268228444 C
   0.7500000000000000    0.5414605208487319    0.1131628336477807 C
   0.5014952871062999    0.9589049400515016    0.0827235132222206 C
   0.5104785150960059    0.4458079703004661    0.1157291779315045 C
  -0.0104785150960060    0.4458079703004661    0.1157291779315045 C
   0.2500000000000000    0.7271859754499984    0.1135173080949145 C
   0.2500000000000000    0.5466755113334013    0.1764039211650496 Ta
