Title
1.0
   4.9440799999999996    0.0000000000000000    0.0000000000000000
   0.0000000000000000    8.5647549999999999    0.0000000000000000
   0.0000000000000000    0.0000000000000000   20.0000000000000000
C N Pd
14 1 1
direct
   0.2500000000000000    0.2076337287929647    0.1006360579190866 C
  -0.0028396567277428    0.2885157891497471    0.1059568173569798 C
   0.2500000000000000    0.0442016503256048    0.0878573389483887 C
   0.0061996063956249    0.7939733718843116    0.0845813775755798 C
   0.0003686471131145    0.9605748657170063    0.0842859187735588 C
   0.7500000000000000    0.2056867966618242    0.0960475253820109 C
   0.5028396567277430    0.2885157891497471    0.1059568173569798 C
   0.7500000000000000    0.0419691973708091    0.0863594772935309 C
   0.7500000000000000    0.7090209963073467    0.0912002641725859 C
   0.4938003936043749    0.7939733718843116    0.0845813775755798 C
   0.7500000000000000    0.5447853228107242    0.1072309889029220 C
   0.4996313528868858    0.9605748657170063    0.0842859187735588 C
   0.5193499664307324    0.4490344860628805    0.1203471369543052 C
  -0.0193499664307323    0.4490344860628805    0.1203471369543052 C
   0.2500000000000000    0.7172682293203230    0.0836611838013384 N
   0.2500000000000000    0.5452370527825124    0.1791766622592969 Pd
