Title
1.0
   4.9440799999999996    0.0000000000000000    0.0000000000000000
   0.0000000000000000    8.5647549999999999    0.0000000000000000
   0.0000000000000000    0.0000000000000000   20.0000000000000000
C N Hf
10 4 1
direct
   0.2500000000000000    0.2118394378962608    0.0959732744928155 C
  -0.0013551378404109    0.2948408018192278    0.0961641655362538 C
   0.2500000000000000    0.0376755029072768    0.0959950889934596 C
  -0.0014159289595716    0.9547182754051207    0.0961828696794740 C
   0.7500000000000000    0.2090761267931547    0.0938860061146004 C
   0.5013551378404107    0.2948408018192278    0.0961641655362538 C
   0.7500000000000000    0.0405135603250930    0.0938881961660224 C
   0.7500000000000000    0.7101217955796172    0.0984973075441015 C
   0.7500000000000000    0.5393498597682804    0.0984635317929295 C
   0.5014159289595717    0.9547182754051207    0.0961828696794740 C
   0.5076644645041146    0.4581241768414266    0.1004948359951975 N
  -0.0076644645041148    0.4581241768414266    0.1004948359951975 N
  -0.0077507601846500    0.7914506127286155    0.1005234390343721 N
   0.5077507601846500    0.7914506127286155    0.1005234390343721 N
   0.2500000000000000    0.6248369831415373    0.1445459744054800 Hf
