Title
1.0
   4.9440799999999996    0.0000000000000000    0.0000000000000000
   0.0000000000000000   17.1295089999999988    0.0000000000000000
   0.0000000000000000    0.0000000000000000   20.0000000000000000
C N W
28 3 1
direct
   0.0000399698982341    0.1043441415228611    0.2911628505384977 C
   0.2500589935934723    0.1462727535586485    0.2941774459091455 C
   0.2490405157262220    0.2292023670571777    0.3014256120470937 C
   0.0004476891099181    0.3517203396830458    0.3141395087801070 C
  -0.0024996020568454    0.2707612410701603    0.3034573746308776 C
   0.0022804006477823    0.5992998733732655    0.2998909516464379 C
   0.2552237081874269    0.7268309289419901    0.2940535956451074 C
   0.0043527878908565    0.8531177410093292    0.2892603864471475 C
   0.2536824860533352    0.8951781038667241    0.2886169148398222 C
   0.2521649465286210    0.9787729976007068    0.2882031455969214 C
   0.0062773658174911    0.7696664141625621    0.2918434682198063 C
   0.5001687862573533    0.1042385462373882    0.2914083728580393 C
   0.7492292735696237    0.1464672301086147    0.2928542656719659 C
   0.7474812374003073    0.2295323986941628    0.2982487348663960 C
   0.5016828986298418    0.0207437121019735    0.2887113254429896 C
   0.4928986037213776    0.3538216612867665    0.3156390810675286 C
   0.7624080611716288    0.4798001920254515    0.3120574944613918 C
   0.4983099590775001    0.2717228761873058    0.3047094298412921 C
   0.5126018701271963    0.6041752396961910    0.3057407205152854 C
   0.7565706207538002    0.7282294661246794    0.2949396898517563 C
   0.5035282903675462    0.8530343453351203    0.2898359351854205 C
   0.7532794062577097    0.8950280187216263    0.2886854594619986 C
   0.7519811883444358    0.9786625487145071    0.2880736134739814 C
   0.5045867296640303    0.7692833416056379    0.2931261107867437 C
   0.7568242325691938    0.6455275641523170    0.3006003358432120 C
   0.2581326988743518    0.6424826801867384    0.2980256398986547 C
   0.0015506001867409    0.0208528471632361    0.2885564384042535 C
   0.5292828997919203    0.5232021862385987    0.3272085294519616 C
   0.9856259796063443    0.5172437738675120    0.2765373288376007 N
   0.2429020690318469    0.3906545782455912    0.3298795893478955 N
   0.7490350715678592    0.3948827167492556    0.3137724785284670 N
   0.1676732616328852    0.5037981747108459    0.3677231719021533 W
