Title
1.0
   9.8694509999999998    0.0000000000000000    0.0000000000000000
   0.0000000000000000    8.5490480000000009    0.0000000000000000
   0.0000000000000000    0.0000000000000000   20.0000000000000000
C N Cu
26 4 1
direct
   0.0555194974708950    0.0893374414055873    0.0947867655663087 C
   0.9303751583842598    0.1724467931595306    0.0949786616575036 C
   0.0570367452750651    0.9234364711798516    0.0945970297462981 C
   0.9331152679504247    0.3401241027414934    0.0948869028916446 C
   0.0564318671049368    0.5899009029697139    0.0946122273801630 C
   0.9327816366824632    0.6740204049399959    0.0945936057968206 C
   0.0571211106810166    0.4228039658210860    0.0947953481614569 C
   0.9320772502613272    0.8408340099407072    0.0946012805669272 C
   0.3075945866616263    0.0883341680243356    0.0946782506962063 C
   0.1816837133833021    0.1707110621479299    0.0947603127664061 C
   0.1808832169959912    0.3369189060009837    0.0948449847013035 C
   0.3039383877957546    0.5866481662507915    0.0948770929549809 C
   0.1807883608236752    0.6737586349743956    0.0946130951606202 C
   0.3033644064385493    0.4195884822838316    0.0948324247197493 C
   0.1824945041414610    0.8396094161061959    0.0945816877475802 C
   0.4314650073202903    0.1763599575356282    0.0947882929699653 C
   0.5557180145105465    0.9213457539750477    0.0950153372891905 C
   0.4259812001447801    0.6717614901096627    0.0953969303178015 C
   0.4305995538438070    0.8360949842921610    0.0949901633053641 C
   0.8039122293529345    0.0891465020246087    0.0950347812437368 C
   0.6794003961756768    0.1787929738827743    0.0952228192752493 C
   0.8053704420311022    0.9222586808444627    0.0948478908072287 C
   0.6847729358588225    0.3423922885838220    0.0955731184323365 C
   0.8098638993849088    0.5918727533465964    0.0947807162503462 C
   0.8096801263298256    0.4245915686661255    0.0950000669856301 C
   0.6799268896560348    0.8348182545339213    0.0949441112279848 C
   0.5555008376767671    0.0932132462258853    0.0949248505484711 N
   0.4267412404566880    0.3390177019478581    0.0946379543410387 N
   0.6862101657271978    0.6701512289736725    0.0946644397826154 N
   0.3066909377621566    0.9231452379700400    0.0945801866900540 N
   0.5560954137177160    0.5074394491413297    0.0955236700190515 Cu
