Title
1.0
   9.8694509999999998    0.0000000000000000    0.0000000000000000
   0.0000000000000000    8.5490480000000009    0.0000000000000000
   0.0000000000000000    0.0000000000000000   20.0000000000000000
C N Rh
29 2 1
direct
   0.0559132265294990    0.0908643829453750    0.0862426629402716 C
   0.9314995410783614    0.1725393502090510    0.0885688572975371 C
   0.0571602100055951    0.9239298263388692    0.0859944131749702 C
   0.9314187674534129    0.3399948434925983    0.0921207050375119 C
   0.0569073975882691    0.5898661618292291    0.0877404228741359 C
   0.9324944221852988    0.6727565735882741    0.0920091981416483 C
   0.0573363213041868    0.4230061140234819    0.0885154046646407 C
   0.9320369403975783    0.8390965925625031    0.0892191764155592 C
   0.3056763159597635    0.0885504288031109    0.0891634052271789 C
   0.1819803814292761    0.1730287618601132    0.0876403839564865 C
   0.1830508777369426    0.3405623778340137    0.0889238863785073 C
   0.3051100732820685    0.5919336708748603    0.0924808724604657 C
   0.1810703891927077    0.6749093279266392    0.0870435125282744 C
   0.3078117243010207    0.4253784229252557    0.0946408790117526 C
   0.1806375756966894    0.8409298770625556    0.0865868104620740 C
   0.5559394978932733    0.0865707665262215    0.0954402682492447 C
   0.4307981488421833    0.1699071043646609    0.0942371104858930 C
   0.5538768207072946    0.9199832656942367    0.0969220660457319 C
   0.4313188427502972    0.3359804390949092    0.1021645411524759 C
   0.5564827836815838    0.4055430861776199    0.1191868158357927 C
   0.4270743500567561    0.8399111931176628    0.0943295139993318 C
   0.8066339008239306    0.0883195474337026    0.0901096535141231 C
   0.6814187094200408    0.1695260191267844    0.0960359504441409 C
   0.8069068907826792    0.9224172480239539    0.0912762274915298 C
   0.6825339991344592    0.3352087395283308    0.1059808449264096 C
   0.8095326032152379    0.5890366500359600    0.1041945969144975 C
   0.6935458050456949    0.6795004563391489    0.1181456318355079 C
   0.8081129965304047    0.4212993461088554    0.1023684586611983 C
   0.6825125269558766    0.8384667856450176    0.1012383860479545 C
   0.4223658098723009    0.6804184864519639    0.0981858192620239 N
   0.3052666000823141    0.9245018700681799    0.0889575348282951 N
   0.5452145500650097    0.5963082839868490    0.1680109897348798 Rh
