Title
1.0
   4.9440799999999996    0.0000000000000000    0.0000000000000000
   0.0000000000000000    8.5647549999999999    0.0000000000000000
   0.0000000000000000    0.0000000000000000   20.0000000000000000
C N Ti
10 4 1
direct
  -0.0015164409985107    0.2928221708066424    0.0943476914662972 C
   0.2522398610534498    0.0377890866488434    0.0971090318686182 C
   0.0003669090948248    0.9569628425451234    0.0930965168663868 C
   0.7486360439923251    0.2074054604270354    0.0947165170454328 C
   0.4994464410058437    0.2967499216292926    0.1005705723490897 C
   0.7504854120339491    0.0404718322425240    0.0948743178220249 C
   0.7588061877344865    0.7125199861767243    0.0984275787335097 C
   0.7569285587372050    0.5392000146766663    0.0999852757695324 C
   0.5040921218428880    0.9534132933047823    0.1004487874773334 C
   0.5060124375155705    0.4601352906144913    0.1100287567599299 C
  -0.0011516719235086    0.4526276419371030    0.0931146198403283 N
  -0.0048454405620003    0.7948320128549327    0.0886215652801138 N
   0.5154155855258340    0.7899895260696862    0.1105708988236641 N
   0.2495819757824075    0.2100833301575028    0.0975745809447513 N
   0.2155020191652351    0.6266785899086526    0.1344932889529909 Ti
