Title
1.0
   4.9440799999999996    0.0000000000000000    0.0000000000000000
   0.0000000000000000   17.1295089999999988    0.0000000000000000
   0.0000000000000000    0.0000000000000000   20.0000000000000000
C N Re
26 4 1
direct
   0.0022983265846007    0.1062831462704583    0.2957818193428960 C
   0.2533032409775239    0.1486680061757097    0.2973157200988711 C
   0.2555645628048209    0.2336685304648376    0.2992732276342030 C
   0.0013916716677632    0.2725999371660001    0.2954216662846348 C
  -0.0033505896988889    0.6026137830793642    0.2962942055774788 C
   0.2485065179084117    0.7261381316750042    0.2970536405424268 C
   0.0004916638182498    0.8527564619621752    0.2951397352351126 C
   0.2495345288972855    0.8951903596906929    0.2953515997995819 C
   0.2503710741176157    0.9794517517604943    0.2954719020178089 C
  -0.0005011360502810    0.7681921946582951    0.2956800612461379 C
   0.5012012575758938    0.1057135914392570    0.2970083786802135 C
   0.7508852346931310    0.1476763904987559    0.2965248922865957 C
   0.7508191337441400    0.2318272806881998    0.2979423912274090 C
   0.5006139437766201    0.0214316768407499    0.2959941305555394 C
   0.7627977224174773    0.3943252034607826    0.3020421229735726 C
   0.7591286896104024    0.4803218273105244    0.3022308551396398 C
   0.5062029588743236    0.2756644348669057    0.3044825624809466 C
   0.4975318802691064    0.6000428002069790    0.3041876298758144 C
   0.7477829127298077    0.7273119225369914    0.2964339842440716 C
   0.4982698429287644    0.8529190079730655    0.2957472199600849 C
   0.7498453748914214    0.8948101445571692    0.2952332070033434 C
   0.7507505543718831    0.9792933791939085    0.2953374857838543 C
   0.4974388358526096    0.7683928785773259    0.2966927099662060 C
   0.7455113057925895    0.6438810953806329    0.2980690407208920 C
   0.0011498878186161    0.0218276523750830    0.2952951530158440 C
   0.5080358465950729    0.5173357342359964    0.3173699351357531 C
   0.9944011056117121    0.5228785526439725    0.2932180800891156 N
   0.5205919129566585    0.3574622479924634    0.3199910014589715 N
  -0.0073538737112672    0.3527906052468984    0.2897338646440544 N
   0.2485007986799312    0.6422218140191570    0.2989771031212565 N
   0.2182918134940055    0.4376514570521470    0.3297646738576221 Re
