Title
1.0
   9.8694509999999998    0.0000000000000000    0.0000000000000000
   0.0000000000000000    8.5490480000000009    0.0000000000000000
   0.0000000000000000    0.0000000000000000   20.0000000000000000
C N V
25 6 1
direct
   0.0562719196243749    0.0927539560552435    0.0887139647534185 C
   0.9301164588133761    0.1753965808497161    0.0904662513480761 C
   0.0562853149195394    0.9238473090573862    0.0877939141854454 C
   0.9300793170998155    0.3412216242104451    0.0935750651211642 C
   0.0562164133122099    0.5898825465157937    0.0891568687434058 C
   0.9316539741007603    0.6713680968592655    0.0904633160655696 C
   0.0562858122555022    0.4230728004405957    0.0922841817108967 C
   0.9312501049501146    0.8396241803744299    0.0894310433270712 C
   0.3057415455893738    0.0893737004604012    0.0882580483559178 C
   0.1824461573611090    0.1753469016570129    0.0896158515273669 C
   0.3064603974811284    0.9237327900737577    0.0885096180072557 C
   0.1825283703298053    0.3411650056633902    0.0924302918751516 C
   0.3064674442588461    0.5925181396126178    0.0947906414513661 C
   0.1808417073973817    0.6713156996235000    0.0889879206371476 C
   0.1813881530880242    0.8395943620753747    0.0880543623985706 C
   0.5563011592503506    0.0857272954968504    0.0956379094553146 C
   0.4314405653979371    0.1696960958896419    0.0930948445094122 C
   0.4341358699868614    0.3347910345581052    0.0985682046707427 C
   0.4284076055382933    0.8373641165473402    0.0946023983661564 C
   0.8068836410494880    0.0894632109893414    0.0894898440262801 C
   0.6812144350394523    0.1697989136378942    0.0940060277198639 C
   0.8062272152156070    0.9237489325368684    0.0901543785538540 C
   0.6784694611434200    0.3349350892284605    0.0998691391702301 C
   0.8062836585490770    0.5926073222163053    0.0977290577444098 C
   0.6844517411429298    0.8374445712642347    0.0966090191777019 C
   0.4226708504410731    0.6786159315235413    0.1043910723722717 N
   0.5560422876945768    0.4079460756264861    0.1123471483360388 N
   0.6908834913873155    0.6793232125209994    0.1088588990356987 N
   0.5563661489809000    0.9160242384191062    0.0956253020463675 N
   0.3116187253296333    0.4245333754116887    0.0949891060746916 N
   0.8010472958642718    0.4246801299394030    0.0972748251833913 N
   0.5531617574074570    0.5933327606648038    0.1698964840497668 V
