Title
1.0
   4.9440799999999996    0.0000000000000000    0.0000000000000000
   0.0000000000000000    8.5647549999999999    0.0000000000000000
   0.0000000000000000    0.0000000000000000   20.0000000000000000
C N W
10 4 1
direct
  -0.0062239281038449    0.2964907287546187    0.1021394384710019 C
   0.2452160640547291    0.0388454292528055    0.0982571285933018 C
  -0.0031250118835842    0.9536725070044649    0.1034396238268269 C
   0.7483320864395884    0.2084590391023951    0.0943302425535045 C
   0.4935782396089737    0.2890701706616080    0.0896543343678455 C
   0.7516516387930174    0.0401978486799347    0.0958210795886509 C
   0.7498392310771363    0.7122286099094093    0.0980816837413201 C
   0.7429312894636794    0.5404729111380433    0.0978428000374316 C
   0.5002266865885570    0.9608492339044978    0.0933374677402437 C
   0.4996976362338905    0.4538323404266536    0.0864940614663217 C
  -0.0106007034558207    0.4605356949603797    0.1163737053774027 N
  -0.0115901354484903    0.7878275053552598    0.1142947070628756 N
   0.5099179206500216    0.7966355451711267    0.0912367337756571 N
   0.2415887316854292    0.2099730529534314    0.0971080303275481 N
   0.2985602542967172    0.6225903827253723    0.1295689630700712 W
