Title
1.0
   9.8694509999999998    0.0000000000000000    0.0000000000000000
   0.0000000000000000    8.5490480000000009    0.0000000000000000
   0.0000000000000000    0.0000000000000000   20.0000000000000000
C N Fe
26 5 1
direct
   0.0563677458755257    0.0922999584151106    0.0843361774558182 C
   0.9309858724632120    0.1747515419482012    0.0857526171730290 C
   0.0575790019026582    0.9248927063146718    0.0839017521243305 C
   0.9298182157002503    0.3422730945532799    0.0889011358138587 C
   0.0572597709215336    0.5908590895453236    0.0854748396671159 C
   0.9329396942858873    0.6737429454762923    0.0880092270904096 C
   0.0568361593375645    0.4235103141606014    0.0874756183228161 C
   0.9330226284281535    0.8405843766445825    0.0863209918818851 C
   0.3062490261899889    0.0884464421271232    0.0888143392798284 C
   0.1828353721606299    0.1743467669951484    0.0869148166945865 C
   0.1837180687389973    0.3410771466356465    0.0894709539483931 C
   0.3048505343961409    0.5927467521765681    0.0994874252232096 C
   0.1816475573458296    0.6748242659366056    0.0874701498525147 C
   0.3106121538209889    0.4238298148989200    0.0978741478592305 C
   0.1811842629131196    0.8414658124125669    0.0860487697187567 C
   0.5562820203402060    0.0834621621511211    0.0948029695064927 C
   0.5545432308928595    0.9178843095339146    0.1009310644066355 C
   0.4328571460459973    0.3312564794548446    0.1025895279997374 C
   0.4255282415621395    0.8390388724894516    0.1030543163821135 C
   0.8062457097817903    0.0891176096541514    0.0863787239894771 C
   0.6796123902396226    0.1688025844182295    0.0910391107775172 C
   0.8076415829330506    0.9237035255592393    0.0886463058324335 C
   0.6791407408417578    0.3337091155424850    0.0998320359253274 C
   0.8086915421930094    0.5942267106099971    0.0992737049938290 C
   0.8020990408708043    0.4247334501636623    0.0967825295519961 C
   0.6857322267278517    0.8388938156704765    0.1007615355711298 C
   0.4138859776249531    0.6858305859416961    0.1171099928903505 N
   0.5547698924877057    0.3984085652575287    0.1158728421301718 N
   0.6961168654109532    0.6823988269043451    0.1147362477451290 N
   0.3056874493309024    0.9257644631158753    0.0889559992936141 N
   0.4291965617511874    0.1664327143531324    0.0940641304882347 N
   0.5557023164847350    0.5869311809392105    0.1645910004100439 Fe
