Title
1.0
   4.9440799999999996    0.0000000000000000    0.0000000000000000
   0.0000000000000000   17.1295089999999988    0.0000000000000000
   0.0000000000000000    0.0000000000000000   20.0000000000000000
C N Tc
28 3 1
direct
   0.0022333832242715    0.1048094723206899    0.2842665443769207 C
   0.2525746336839872    0.1466832258379130    0.2879492626738604 C
   0.2543219317281646    0.2295143469072711    0.2981187927621043 C
   0.0100432375664246    0.3507855006797418    0.3201990817396577 C
   0.0034769585029610    0.2709211350588378    0.3030121742114308 C
  -0.0111777712531044    0.6046447051744037    0.3086157774386489 C
   0.2451655006307215    0.7278473276993225    0.2914228470822808 C
  -0.0016696450614179    0.8538016748229785    0.2817775932333002 C
   0.2484848640495988    0.8957408186070667    0.2807131857525112 C
   0.2500068870758588    0.9794043714605435    0.2801495520229818 C
  -0.0031819412840246    0.7703214636228498    0.2865949540885145 C
   0.5018450116389593    0.1048167190118227    0.2842905843156840 C
   0.7525049891256282    0.1469284272049725    0.2867348952231417 C
   0.7541295931629995    0.2293381142149583    0.2948438016713711 C
   0.5005203748409366    0.0213690711810858    0.2807034234064992 C
   0.5024153956105702    0.3509356309366805    0.3204919741964798 C
   0.7505462110905056    0.4802106096219541    0.3181794292297521 C
   0.5060162201824958    0.2709996905622112    0.3031761490050739 C
   0.4985349615205723    0.6052245883581477    0.3085903542387507 C
   0.7463857785666760    0.7292243450021458    0.2892880043539088 C
   0.4975315987489016    0.8536674810162386    0.2818066681558046 C
   0.7483351771515643    0.8956125811019998    0.2803350347735433 C
   0.7499275368109490    0.9792624666499533    0.2798095015823822 C
   0.4957697344573957    0.7700336265596384    0.2866579509654116 C
   0.7442815485425015    0.6464099350648000    0.2991512037547689 C
   0.2440807457602111    0.6447443454487013    0.3037256427090159 C
   0.0004202441014438    0.0213708839013403    0.2806972831049350 C
   0.5122677243997188    0.5243380732348737    0.3275074748945452 C
   0.9789363202316684    0.5247100577965985    0.3249030965162133 N
   0.2562940648295420    0.3845300014758416    0.3385614066709210 N
   0.7579223470997081    0.3955494843136275    0.3247661720258938 N
   0.2478793832636149    0.4848008251507811    0.3855251838236443 Tc
