Title
1.0
   8.5490480000000009    0.0000000000000000    0.0000000000000000
   0.0000000000000000    8.5490480000000009    0.0000000000000000
   0.0000000000000000    0.0000000000000000   20.0000000000000000
C N Mo
18 6 1
direct
   0.9089315909264076    0.2049646571078680    0.0974250696202333 C
   0.9112416557873942    0.8016245814326083    0.0974638048143139 C
   0.1951594170820761    0.0833333158532518    0.0977391864934567 C
   0.0754280482910830    0.2004668308774821    0.0975789622898177 C
   0.1554061471889940    0.6523610117114474    0.0977757295065707 C
   0.0775114287916753    0.5007558349110677    0.0977812402677755 C
   0.1552047654543144    0.3500292127675841    0.0978216843164764 C
   0.0779624803919122    0.7999132262072266    0.0976194634415637 C
   0.4935471210095354    0.0880635822475604    0.0979026197164111 C
   0.3422106092906694    0.1648284454671738    0.0979804019744987 C
   0.4929976633280216    0.9165970186139617    0.0978123611285651 C
   0.3424470636698175    0.8368163759240704    0.0978615127266693 C
   0.7894223671455540    0.0869734649506902    0.0974776302242357 C
   0.6427762633395147    0.1679887491039733    0.0977738838236952 C
   0.7900614799752446    0.9190074937508274    0.0974744718466485 C
   0.8311068154653892    0.6519139146515790    0.0976247880152106 C
   0.8293358908416575    0.3533875442333221    0.0976619189929176 C
   0.6437362332245792    0.8365721944950444    0.0976632273786151 C
   0.9078345751771286    0.5022964704479849    0.0977202699779310 N
   0.3163950452490585    0.3254721964847011    0.0981232719396311 N
   0.3166326538019246    0.6789296084694296    0.0979627845593193 N
   0.6695474720378884    0.3309698292055954    0.0979047043444453 N
   0.6717886275482033    0.6737964567992255    0.0977471603520497 N
   0.1962005673442278    0.9162887794044653    0.0977428806951803 N
   0.4925260176377220    0.5014392048818569    0.0980659715537485 Mo
