Title
1.0
   8.5490480000000009    0.0000000000000000    0.0000000000000000
   0.0000000000000000    8.5490480000000009    0.0000000000000000
   0.0000000000000000    0.0000000000000000   20.0000000000000000
C N Sc
19 5 1
direct
   0.9081322545922713    0.2047556087656063    0.0967418979866126 C
   0.9088774753383619    0.5025624247891738    0.0976218430428987 C
   0.9102490107132238    0.8019373430666434    0.0968109716474243 C
   0.1961453918611980    0.0832260020464984    0.0968700037718545 C
   0.0754104969739170    0.2019218003522026    0.0967885155056442 C
   0.1569230694943359    0.6526733408668161    0.0973821197141058 C
   0.0787263108867655    0.5011919117562932    0.0975430740084211 C
   0.1564453063218185    0.3497775958829324    0.0976004487006736 C
   0.0778696514283830    0.7990446904977947    0.0966988783862036 C
   0.4929305414216680    0.0870492682820111    0.0976274611401639 C
   0.3424658298412301    0.1633704226125839    0.0977182643253301 C
   0.4923479013234687    0.9175276609965102    0.0974603228305228 C
   0.3425607134300060    0.8383329883990552    0.0973524970765813 C
   0.7881386731527313    0.0862005420045632    0.0967672327543951 C
   0.6415652814178063    0.1663726103916572    0.0976311979849519 C
   0.7887157793800984    0.9195336335869664    0.0967692910707706 C
   0.8311299710802234    0.6530534577421592    0.0976312639532338 C
   0.8295668520517107    0.3525088785773092    0.0975783708101247 C
   0.6422380870437657    0.8377724306844128    0.0975176328355914 C
   0.3179404193884173    0.3247929430189735    0.0985377668126272 N
   0.3184149420822449    0.6802115022165868    0.0980551334447058 N
   0.6672900737719519    0.3286228137279520    0.0985183303620225 N
   0.6687272559924414    0.6761988306734761    0.0984439681325716 N
   0.1972433984021139    0.9168711611484481    0.0966450005736659 N
   0.4953573126098403    0.4992801379133726    0.1053935131288828 Sc
