Title
1.0
   4.9440799999999996    0.0000000000000000    0.0000000000000000
   0.0000000000000000   17.1295089999999988    0.0000000000000000
   0.0000000000000000    0.0000000000000000   20.0000000000000000
C N Ag
26 4 1
direct
   0.0033093941234376    0.1058148161721498    0.2971136594780481 C
   0.2530409788771443    0.1492108449469706    0.2967309880787621 C
   0.2547029387903063    0.2338336618824039    0.2969080801192855 C
   0.0002286900490003    0.2746936986703075    0.3001317254901221 C
  -0.0100640692554998    0.6001130625979642    0.2925662967963065 C
   0.2458646618471064    0.7250745750009430    0.2971742096957820 C
  -0.0002474618333405    0.8526633992952553    0.2963496498653196 C
   0.2489604088252125    0.8950641058206791    0.2968920666397415 C
   0.2506063448553289    0.9792299152783518    0.2969437254106431 C
  -0.0020331273622224    0.7680823795639276    0.2959216126337667 C
   0.5015897009173068    0.1057583594518935    0.2961535333525066 C
   0.7528688672991327    0.1471706782555367    0.2962922273403872 C
   0.7543052113315378    0.2309655080327509    0.2959904383942126 C
   0.5005766627756383    0.0214959834739202    0.2966587378280255 C
   0.7561558438518922    0.3919474657687474    0.2958562500458490 C
   0.7529917643603515    0.4822757093697889    0.2978711468351693 C
   0.5099282562345434    0.2753471645790907    0.2930983938939836 C
   0.4974248551121048    0.6006442458064062    0.3044757389799868 C
   0.7463344254369295    0.7274261415651087    0.2965937883388541 C
   0.4970852402533469    0.8525938891324918    0.2971767813387965 C
   0.7489955170399609    0.8945991331691573    0.2967726117377665 C
   0.7506408855066798    0.9791748322370691    0.2968487982146524 C
   0.4953318217594591    0.7680452809684076    0.2976090886275595 C
   0.7436636700419207    0.6442012192151723    0.2970317880030803 C
   0.0015997763643959    0.0215198950554032    0.2970510424189459 C
   0.5147444623600446    0.5202324730832282    0.3196667437237785 C
   0.9862496541795188    0.5227735053238007    0.2829477585825083 N
   0.5192154866994345    0.3549250198021198    0.2856609162596770 N
  -0.0103956253936454    0.3542575845176125    0.3083292869712376 N
   0.2449295780903307    0.6419049828352031    0.2982905459915836 N
   0.2514021868626435    0.4403024691281334    0.3679523689136132 Ag
