Title
1.0
   8.5490480000000009    0.0000000000000000    0.0000000000000000
   0.0000000000000000    8.5490480000000009    0.0000000000000000
   0.0000000000000000    0.0000000000000000   20.0000000000000000
C N Re
19 5 1
direct
   0.9084406292053333    0.2065342757109716    0.0976558029659226 C
   0.9115937476599150    0.8015922670613503    0.0975341746107778 C
   0.1963143796052801    0.0837811894325112    0.0979219459256730 C
   0.0755323878004245    0.2015356487479646    0.0977811282142504 C
   0.1545821756740803    0.6513101908922333    0.0977343981680915 C
   0.0747964402931384    0.5010378274962893    0.0976927321598295 C
   0.1544120437342757    0.3537512029290412    0.0977552797896733 C
   0.0788637471484355    0.7991507731214629    0.0977148945188411 C
   0.4936672435216995    0.0851805218415752    0.0978228321958293 C
   0.3455930155446807    0.1642247513867119    0.0979329329152556 C
   0.4937389275545797    0.9144003597278113    0.0977470914083784 C
   0.3435751432492897    0.8351318844085461    0.0978656911342065 C
   0.7884724510371726    0.0876224573231583    0.0976189527720939 C
   0.6415293586772343    0.1667173318124702    0.0977818214151208 C
   0.7900304342047466    0.9192875631965020    0.0975256586621754 C
   0.8309416261324815    0.6524666668693017    0.0975729007903716 C
   0.8277634934785371    0.3546304989067434    0.0977028854513920 C
   0.6440913439438622    0.8360389972828510    0.0976193693894887 C
   0.3223061384894249    0.3317078951514553    0.0978415828531661 C
   0.9057929999375671    0.5033526779118729    0.0976973704812581 N
   0.3173845566654976    0.6756476211919732    0.0978328689923244 N
   0.6659949715142516    0.3315568471235537    0.0978557278320691 N
   0.6715350299520924    0.6736685194485341    0.0976736454929790 N
   0.1977166075675467    0.9156774437851504    0.0979221045017377 N
   0.4907431074084459    0.4987845872399843    0.0979012073590675 Re
