Title
1.0
   4.9440799999999996    0.0000000000000000    0.0000000000000000
   0.0000000000000000    8.5647549999999999    0.0000000000000000
   0.0000000000000000    0.0000000000000000   20.0000000000000000
C N Cr
11 3 1
direct
   0.0003033526651037    0.2922730900794224    0.0976255236026180 C
   0.2500000000000000    0.0383514367830063    0.0983748326508437 C
  -0.0027259669378745    0.9563578691658856    0.0981593749693208 C
   0.7500000000000000    0.2073180839404799    0.0953138025804470 C
   0.4996966473348963    0.2922730900794224    0.0976255236026180 C
   0.7500000000000000    0.0404757621634715    0.0955967637879563 C
   0.7500000000000000    0.7173492997591293    0.1001028702865531 C
   0.7500000000000000    0.5391424751663985    0.0991135797224739 C
   0.5027259669378744    0.9563578691658856    0.0981593749693208 C
   0.5020943314396977    0.4575845045822318    0.1015398300722130 C
  -0.0020943314396978    0.4575845045822318    0.1015398300722130 C
  -0.0116490019150755    0.7937984177929673    0.1015108312111004 N
   0.5116490019150757    0.7937984177929673    0.1015108312111004 N
   0.2500000000000000    0.2066608392193660    0.0981238676933518 N
   0.2500000000000000    0.6223553397271362    0.1236831635678730 Cr
