Title
1.0
   8.5490480000000009    0.0000000000000000    0.0000000000000000
   0.0000000000000000    8.5490480000000009    0.0000000000000000
   0.0000000000000000    0.0000000000000000   20.0000000000000000
C N Re
21 3 1
direct
   0.9088635277789573    0.2085894431459660    0.0947838663116193 C
   0.9119077895155757    0.8011317107233011    0.0961881203458325 C
   0.1987416494416797    0.0827599085848708    0.0964693772186275 C
   0.0742942133906788    0.2048176627528351    0.0963557587833717 C
   0.1554155220703565    0.6495786852421748    0.0962614874293277 C
   0.0735305287744566    0.5023359703603992    0.0972229177622863 C
   0.1525243296437024    0.3548141006506459    0.0985976242087343 C
   0.0793824408086588    0.7982474360482843    0.0953076489488746 C
   0.4944732537875240    0.0833018439033694    0.0970725813059502 C
   0.3451889954579403    0.1618040802641145    0.0985426121966311 C
   0.4947578840244957    0.9148128846224723    0.0970729173678554 C
   0.3468908283905195    0.8344205211828287    0.0962727113646537 C
   0.7871463811371344    0.0874293482928759    0.0950833270987278 C
   0.6395197922690353    0.1663871625351591    0.0961581874761380 C
   0.7898674437668606    0.9193904128723699    0.0963215992090030 C
   0.8304737873031222    0.6522764801010796    0.0979530941515625 C
   0.8278888994889858    0.3590674417972918    0.0954779921974829 C
   0.6436959393215885    0.8354776724528407    0.0982565210663457 C
   0.3222375644354811    0.3324039728050609    0.1035836941318420 C
   0.3232613222901813    0.6707162072158578    0.0982117337966268 C
   0.6620288115105886    0.3372384951126556    0.0989064502186682 C
   0.9069901576580645    0.5046226435751411    0.0966639889507066 N
   0.6697566420474615    0.6724392198052800    0.1012796157907338 N
   0.1987720237503360    0.9165142023801219    0.0950388588177958 N
   0.4878022719366067    0.4942124935730162    0.1156223138505852 Re
