Title
1.0
   4.9440799999999996    0.0000000000000000    0.0000000000000000
   0.0000000000000000   17.1295089999999988    0.0000000000000000
   0.0000000000000000    0.0000000000000000   20.0000000000000000
C N Ag
28 3 1
direct
  -0.0006670268601771    0.1044993100315124    0.2848353367094476 C
   0.2493108417893412    0.1462212710643399    0.2882077001964352 C
   0.2489859914089294    0.2293970657603983    0.2973690572492869 C
   0.0025637404244168    0.3529455670428603    0.3170690036761045 C
  -0.0020852779011244    0.2705994801223454    0.3020899050377891 C
  -0.0035620080937154    0.6024726164820385    0.3033786474882639 C
   0.2510844829348918    0.7269489414882290    0.2926906313629895 C
   0.0011132296294278    0.8532751213089483    0.2833925441355163 C
   0.2502630108500545    0.8953937222740703    0.2821940472404256 C
   0.2498101045092576    0.9789909192555489    0.2810368549083833 C
   0.0019051378560520    0.7697349436525096    0.2880336488467341 C
   0.4993039944132043    0.1044618720663621    0.2849078761572857 C
   0.7491808243393799    0.1462086090620259    0.2874652735592778 C
   0.7487585401038964    0.2294349270980131    0.2957019183714169 C
   0.4997922804906536    0.0208094549630787    0.2814707944654513 C
   0.4941530529750542    0.3531065102775621    0.3177015299235899 C
   0.7485756698991578    0.3978489266217736    0.3204943513524497 C
   0.7518350478603820    0.4857125550558288    0.3189960238701028 C
   0.4996631533828594    0.2706687999064042    0.3023903206246516 C
   0.5076969827023123    0.6036909935242091    0.3090712563744854 C
   0.7508859699033384    0.7289389289154931    0.2909305266813306 C
   0.4997150128706943    0.8533456747379997    0.2838417149470872 C
   0.7502904695888641    0.8950329461596240    0.2819515481835912 C
   0.7498346149036954    0.9788611562011686    0.2808288284821825 C
   0.4998248991114121    0.7698603853428474    0.2888549361483904 C
   0.7516358794102836    0.6462853392986803    0.2988544568233394 C
   0.2518958623437037    0.6436292726734133    0.3021565567210940 C
  -0.0003272013451526    0.0208356469481189    0.2813889125484808 C
   0.5178029022509535    0.5267506412729011    0.3269882118897575 N
   0.9889517882442672    0.5232078847146134    0.3080198882463137 N
   0.2479269931328330    0.3870076119039234    0.3301215028678657 N
   0.2407040368708605    0.4823739047731523    0.4101311949104327 Ag
