Title
1.0
   8.5490480000000009    0.0000000000000000    0.0000000000000000
   0.0000000000000000    8.5490480000000009    0.0000000000000000
   0.0000000000000000    0.0000000000000000   20.0000000000000000
C N Ta
18 6 1
direct
   0.9082110254526998    0.2055804369917655    0.0960551269429945 C
   0.9108266414616719    0.8005105769255955    0.0944596177367510 C
   0.1975115903341015    0.0835138473427006    0.0946521726744649 C
   0.0769733908471125    0.2014988983880482    0.0951909742873523 C
   0.1544388197323404    0.6520479698628153    0.0984692359915205 C
   0.0760341985596214    0.5010961377983105    0.0974915672426742 C
   0.1558102752429455    0.3528963353494688    0.0964324481881388 C
   0.0789078046783605    0.7996478126440150    0.0954184372423092 C
   0.3470783942187486    0.1635431036184395    0.0958810301019064 C
   0.4922717912037599    0.9158491616361111    0.0974581122079463 C
   0.3433918131491338    0.8391043850194616    0.0987465021180845 C
   0.7878701427103816    0.0866113560074486    0.0960838624540111 C
   0.6411290711361647    0.1654831661862442    0.0979097985646085 C
   0.7896917585455063    0.9181017192536288    0.0951281844795150 C
   0.8308507129551753    0.6515607336324828    0.0958271855007344 C
   0.8278980477231919    0.3527268810484855    0.0978722027775339 C
   0.6434627172698433    0.8372965987741982    0.0965044950479781 C
   0.3247119561796491    0.3288375503421936    0.0976771811227099 C
   0.4945752477119247    0.0863420049313624    0.0969987045538152 N
   0.9049080865890561    0.5022990557846483    0.0971044879154624 N
   0.3180734937970041    0.6778776171890806    0.1029671224347692 N
   0.6643257591439788    0.3289687548247866    0.1010129862581122 N
   0.6703573904309471    0.6741610509632451    0.0973189874454133 N
   0.1960227862421240    0.9162810383307524    0.0955449387654059 N
   0.4900790846845514    0.5029538071547315    0.1154996379457614 Ta
