Title
1.0
   4.9440799999999996    0.0000000000000000    0.0000000000000000
   0.0000000000000000   17.1295089999999988    0.0000000000000000
   0.0000000000000000    0.0000000000000000   20.0000000000000000
C N W
27 4 1
direct
  -0.0019987750109112    0.1041663556847052    0.2967340456847622 C
   0.2478797367815603    0.1462714291556517    0.2986952476859951 C
   0.2457839653424713    0.2295614377117504    0.3033563413130427 C
  -0.0048049056040750    0.3525953629385982    0.3119127881898833 C
  -0.0061725910318406    0.2710663219036684    0.3041429710775967 C
   0.0024508928754008    0.5982123486119845    0.2903302835155888 C
   0.2575311085953722    0.7254083116310522    0.2941821978301220 C
   0.0052153494759694    0.8522454998148855    0.2934763043203838 C
   0.2538295918149200    0.8946621559338191    0.2941339903211958 C
   0.2512913703121238    0.9783399211295178    0.2948125484777680 C
   0.0083146252305467    0.7686648351099996    0.2929877737117639 C
   0.4981453655028805    0.1039910383209719    0.2969580814576260 C
   0.7467763029377840    0.1464033383944331    0.2975326986567483 C
   0.7438055460768023    0.2297269559992808    0.3003920468818511 C
   0.5006631349033636    0.0203649316447029    0.2953065930111333 C
   0.4885720070994423    0.3553739736585427    0.3124834771990503 C
   0.7833891895394901    0.4814989390744712    0.3111852402773597 C
   0.4944420984127217    0.2724467187588807    0.3050000961823273 C
   0.5193441299345851    0.6018604478757217    0.2997592446747463 C
   0.7577653097168814    0.7273532835471174    0.2942340868187642 C
   0.5037765136145362    0.8523294308856990    0.2943637877319366 C
   0.7536088720904779    0.8943394948413695    0.2940322300773090 C
   0.7512662415406292    0.9780966712317963    0.2945734375269654 C
   0.5055671900358196    0.7684300655255401    0.2949083001296550 C
   0.7602744493675657    0.6447655487598614    0.2957997373342817 C
   0.2609934707821728    0.6403861186162118    0.2932910210201848 C
   0.0003977413246281    0.0205587383830863    0.2950908500976195 C
   0.5361600676653733    0.5229039088357313    0.3173029428223187 N
   0.9817534719975258    0.5175429559302858    0.2642536952858799 N
   0.2367100263193792    0.3927289668805720    0.3254206577514675 N
   0.7451124715192619    0.3955282379612748    0.3094518196454386 N
   0.1689790308371462    0.5107272552488094    0.3564604632891878 W
