Title
1.0
   9.8694509999999998    0.0000000000000000    0.0000000000000000
   0.0000000000000000    8.5490480000000009    0.0000000000000000
   0.0000000000000000    0.0000000000000000   20.0000000000000000
C N Tc
27 4 1
direct
   0.0559073475820361    0.0920807979892059    0.0843176445006209 C
   0.9297902514934728    0.1751959033307915    0.0868088509034325 C
   0.0568463507017014    0.9235799177994952    0.0829241423980806 C
   0.9294622088809302    0.3419166118608870    0.0908239145187477 C
   0.0557764614680773    0.5900577845336431    0.0854134718239933 C
   0.9315965149063117    0.6726175710171485    0.0857581031285643 C
   0.0553859227361191    0.4230760835028334    0.0893085360495011 C
   0.9316703610849160    0.8400962949721098    0.0846197286603448 C
   0.3054691805036681    0.0881356709102665    0.0870604583983385 C
   0.1819978795923931    0.1736360980685503    0.0869249490199453 C
   0.3077112939430725    0.9224553608603924    0.0872012841735793 C
   0.1814725646410381    0.3399953460466486    0.0911282652940362 C
   0.3040280492548589    0.5885614157450377    0.0992262841085727 C
   0.1807037628043161    0.6708270668054277    0.0869692318944321 C
   0.1820256355980217    0.8387359154041124    0.0847335639019684 C
   0.5566982658605805    0.0860111377075379    0.0949689797066249 C
   0.4305501727165112    0.1693735764527868    0.0935948472308077 C
   0.4302136083364188    0.3342074659807475    0.1029448196295281 C
   0.4300363013851329    0.8383270759120178    0.0980415682265430 C
   0.8067107406950276    0.0898379266059950    0.0867272461063657 C
   0.6813192920247485    0.1717208265938416    0.0929951698623878 C
   0.8064764924219699    0.9245064904204349    0.0871260859506709 C
   0.6793643599586451    0.3362929147862549    0.1016238437426579 C
   0.8069842685751644    0.5932181179144931    0.0964539574270471 C
   0.6851131883479137    0.8395469208693087    0.0974742456914879 C
   0.4204502205117714    0.6772869324032421    0.1174015231640915 C
   0.5545885394615628    0.4088832226031155    0.1210981508805558 C
   0.6954314729915678    0.6814134442680729    0.1140995613983076 N
   0.5577748415713336    0.9184323595128664    0.0979242856977999 N
   0.3054113000249880    0.4211907932741373    0.0988585886112664 N
   0.8039586083972953    0.4254022496644730    0.0973810853810145 N
   0.5587135415284401    0.5936267061841255    0.1737426125187017 Tc
