Title
1.0
   9.8694509999999998    0.0000000000000000    0.0000000000000000
   0.0000000000000000    8.5490480000000009    0.0000000000000000
   0.0000000000000000    0.0000000000000000   20.0000000000000000
C N Ru
26 4 1
direct
   0.0555745876573338    0.0909568112002582    0.0876518840519391 C
   0.9304965815982538    0.1729687375533004    0.0884434806197872 C
   0.0576811768559835    0.9239934934439914    0.0877241521066654 C
   0.9333205981052907    0.3405292458516165    0.0868595106325266 C
   0.0572827176958565    0.5904347025352957    0.0826958512790857 C
   0.9341597768372381    0.6754640564206386    0.0868458697543360 C
   0.0575772210851474    0.4233687565473250    0.0830141945282280 C
   0.9324550815745944    0.8412979654493667    0.0889977004153111 C
   0.3062511499109200    0.0886233558678364    0.0957079687277018 C
   0.1804634147923625    0.1712485749055101    0.0895436282870785 C
   0.1808755918790728    0.3389421833294688    0.0873716426976715 C
   0.3022700221957310    0.5896843317206640    0.0941940382810008 C
   0.1808460232048998    0.6737531425089063    0.0861094589007985 C
   0.3028379623153388    0.4212770922485846    0.0961709881591658 C
   0.1813191739812206    0.8409503682555178    0.0886545122984371 C
   0.5548766474480644    0.0895877967676977    0.1058545990171527 C
   0.4276359543420341    0.1743707159299011    0.1049689340267643 C
   0.5544431778509348    0.9177916054496198    0.1053174489461432 C
   0.4273379009656797    0.8336214524109091    0.1021687459385871 C
   0.8041231787112029    0.0905533812143830    0.0942974956387828 C
   0.6807713095682356    0.1760989523276905    0.1027960182986258 C
   0.8056086784319543    0.9217758299853446    0.0947221005681772 C
   0.6882616378643989    0.3452881535287603    0.1086496917610750 C
   0.8131855761070340    0.5932857154657584    0.0964023059206176 C
   0.8121187151438884    0.4248606547006394    0.0954999364067513 C
   0.6838331651114986    0.8328820808568115    0.1037036654197280 C
   0.4205181819050758    0.3389110298104170    0.1119201631519705 N
   0.6936881592694649    0.6704498497672443    0.1104312715297553 N
   0.4194538568148666    0.6741225304866970    0.1062557707035638 N
   0.3066769570670041    0.9222862051777948    0.0941669257683849 N
   0.5571908237094284    0.5014962282820637    0.1338250461642235 Ru
