Title
1.0
   4.9440799999999996    0.0000000000000000    0.0000000000000000
   0.0000000000000000    8.5647549999999999    0.0000000000000000
   0.0000000000000000    0.0000000000000000   20.0000000000000000
C N Au
9 5 1
direct
  -0.0051670333496670    0.2932038648764869    0.0934026829521035 C
   0.2500000000000000    0.0347469978439146    0.0939088712064906 C
  -0.0035510164636157    0.9504816742484462    0.0954819585429994 C
   0.7500000000000000    0.2033820565897634    0.0933412099726656 C
   0.5051670333496666    0.2932038648764869    0.0934026829521035 C
   0.7500000000000000    0.0358132494340555    0.0944579216020492 C
   0.7500000000000000    0.7113483636979803    0.0947994975444033 C
   0.7500000000000000    0.5258361107258291    0.0928559700451101 C
   0.5035510164636158    0.9504816742484462    0.0954819585429994 C
   0.5091063035577816    0.4506623309346501    0.0932293163420539 N
  -0.0091063035577818    0.4506623309346501    0.0932293163420539 N
  -0.0093783999827521    0.7863427708492894    0.0967787226742955 N
   0.5093783999827520    0.7863427708492894    0.0967787226742955 N
   0.2500000000000000    0.2086104358081937    0.0934641456856081 N
   0.2500000000000000    0.6905625040825202    0.1873670229207716 Au
