Title
1.0
   9.8694509999999998    0.0000000000000000    0.0000000000000000
   0.0000000000000000    8.5490480000000009    0.0000000000000000
   0.0000000000000000    0.0000000000000000   20.0000000000000000
C N W
27 4 1
direct
   0.0554311584564375    0.0900288081603509    0.0817968514411147 C
   0.9305107865878418    0.1745738025395677    0.0814760022074133 C
   0.0575447122768547    0.9226031455551629    0.0837168415749163 C
   0.9299251418223612    0.3415773616847613    0.0835929439582898 C
   0.0564228621429196    0.5910504599268305    0.0855254950919903 C
   0.0555090381016912    0.4240529035819259    0.0843090992218642 C
   0.9331259012080928    0.8392868062396345    0.0858802192733213 C
   0.3052525847102120    0.0880719295680049    0.0878685525126853 C
   0.1813933951199909    0.1723040470852716    0.0846944574923744 C
   0.1809099354372548    0.3397803749863048    0.0872274547194070 C
   0.3015884979877458    0.5879771263282790    0.1044090524205885 C
   0.1805856729729771    0.6734812599453094    0.0908926389639292 C
   0.3057275501803199    0.4201341537014829    0.0996508880614609 C
   0.1825563677260608    0.8410977259767730    0.0881079402496458 C
   0.5557121608489567    0.0867361060485023    0.0912129406670256 C
   0.5552206643815840    0.9199173492088570    0.0978041214992812 C
   0.4282951341638466    0.3302167542089764    0.1054460682371740 C
   0.4267061453212133    0.8415752772726337    0.1049471789793365 C
   0.8060872514561157    0.0891655967524453    0.0829663130325194 C
   0.6798326263866528    0.1716168487295840    0.0879403072634160 C
   0.8076275223987628    0.9232467615059131    0.0869084430947191 C
   0.6813686523006391    0.3369496613105607    0.0986503657943269 C
   0.8111902982090810    0.5941590730919331    0.0981488485115912 C
   0.8046386965739473    0.4262998855120074    0.0930583825409114 C
   0.6846701032950369    0.8421340351395726    0.0985598859534302 C
   0.4154262939617115    0.6821444754324346    0.1242646247176653 C
   0.5550770255128016    0.4012025423789783    0.1212688171132255 C
   0.7007746602782486    0.6843174362348533    0.1180693584069408 N
   0.3060567070158897    0.9244427140164858    0.0907633555212349 N
   0.4285020875884333    0.1668479092679001    0.0934436204108557 N
   0.9327417767201586    0.6736518707754524    0.0875514930656659 N
   0.5632275888561665    0.5896017978332520    0.1755224380016956 W
