Title
1.0
   8.5490480000000009    0.0000000000000000    0.0000000000000000
   0.0000000000000000    8.5490480000000009    0.0000000000000000
   0.0000000000000000    0.0000000000000000   20.0000000000000000
C N Co
23 1 1
direct
   0.9104753374897632    0.2080706346580202    0.0953934705420883 C
   0.9052148312933950    0.5028990548675659    0.0952854656525365 C
   0.9110479518209308    0.7992337019037785    0.0954140234359260 C
   0.1985568980541465    0.0836620700491786    0.0954347733267339 C
   0.0748934844721197    0.2072729332860200    0.0953934083669891 C
   0.1993548777050785    0.9192406802575769    0.0954565884405671 C
   0.1569230378479900    0.6477801286481495    0.0953529543075749 C
   0.0745806421155312    0.5027927531712583    0.0952991332001418 C
   0.1584320688675192    0.3570640882796191    0.0953193047866388 C
   0.0761246864297181    0.7967679711859607    0.0954326132505909 C
   0.4939796892416350    0.0833633560254081    0.0953480805645395 C
   0.3482894873160428    0.1672443824858106    0.0953699295510575 C
   0.4941174624731232    0.9139890217537140    0.0953406221661934 C
   0.3484102569323892    0.8333074725781252    0.0953843944763702 C
   0.7879836199914608    0.0848653056977074    0.0954209055681181 C
   0.6389741707400531    0.1657002727681686    0.0953456825752676 C
   0.7904932800710291    0.9197993197127665    0.0954202004889350 C
   0.8259734869396127    0.6513071800194933    0.0952814463464281 C
   0.8245375152560157    0.3571631814369947    0.0953160389013388 C
   0.6425254864107055    0.8347487271561854    0.0952937563334325 C
   0.3269508432513513    0.3357782526569881    0.0953115363018836 C
   0.3254775332209508    0.6659007127792066    0.0953333766603365 C
   0.6571090136607052    0.3342365507774739    0.0953018466498371 C
   0.6653140210134236    0.6740949348330630    0.0951788821335089 N
   0.4896723173853028    0.4985073130117808    0.0952765659729437 Co
