Title
1.0
   9.8694509999999998    0.0000000000000000    0.0000000000000000
   0.0000000000000000    8.5490480000000009    0.0000000000000000
   0.0000000000000000    0.0000000000000000   20.0000000000000000
C N Ir
27 3 1
direct
   0.0555167433888912    0.0887953567220457    0.0808846651294115 C
   0.9307999434162308    0.1714271253193237    0.0820840533568135 C
   0.0569901816977766    0.9222289825878358    0.0826832384863558 C
   0.9328606178183817    0.3387747825059906    0.0812841497036543 C
   0.0555576002413351    0.5909262410992974    0.0804492100528229 C
   0.0558328560810320    0.4247107432898514    0.0782435892970034 C
   0.9310561714732503    0.8387562042667852    0.0851995787730796 C
   0.3079510943629670    0.0895989250485575    0.0900559533220643 C
   0.1817626675686059    0.1711106590188284    0.0826089907648956 C
   0.1797807092286968    0.3393064923358004    0.0819120479141224 C
   0.2982633379492582    0.5903420773271277    0.0960214503002790 C
   0.1794464826657808    0.6753560088567176    0.0850450814041551 C
   0.2993133139203180    0.4221254336991467    0.0942888040899998 C
   0.1823480815745962    0.8425424020065572    0.0858767955921739 C
   0.4307806123674732    0.1759264187729749    0.1005471143891343 C
   0.5552928014623478    0.9234348293763859    0.1057699951140065 C
   0.4230889736909058    0.3419303924648385    0.1096080254709363 C
   0.4208739480102416    0.6711277008452050    0.1141384150516907 C
   0.4284910569868181    0.8370473894496776    0.1044675211791402 C
   0.8045581881338568    0.0888731704672344    0.0896685635604939 C
   0.6826777782863100    0.1761116337943380    0.1007673206976279 C
   0.8055378997248934    0.9198329122117054    0.0913062949417243 C
   0.6909177758626808    0.3420592744341872    0.1121144768172453 C
   0.8145098499736718    0.5907431069466285    0.0967552656953306 C
   0.6909400739697198    0.6686936656499320    0.1134356832662647 C
   0.8145361820880721    0.4214794040216926    0.0948211779595593 C
   0.6807105034146490    0.8364206823849178    0.1032055367724788 C
   0.9326547997962551    0.6726363867088192    0.0848469719226477 N
   0.5569987899725014    0.0905796802304823    0.1040435275955227 N
   0.3058791230565387    0.9230081871867059    0.0915704448072754 N
   0.5572068418159446    0.5049687309704294    0.1372610565721164 Ir
