Title
1.0
   4.9440799999999996    0.0000000000000000    0.0000000000000000
   0.0000000000000000   17.1295089999999988    0.0000000000000000
   0.0000000000000000    0.0000000000000000   20.0000000000000000
C N Mn
29 2 1
direct
  -0.0000177194612713    0.1048449090320700    0.2814688811027715 C
   0.2498924134236122    0.1465692634132229    0.2858106772080511 C
   0.2498711147944217    0.2288997073239736    0.2980264275355293 C
   0.0045234043822089    0.3491526232309251    0.3236568925484583 C
  -0.0019620746871717    0.2698116209988992    0.3043167282595712 C
  -0.0034326101063639    0.6056072594211406    0.3102373177944253 C
   0.2499135346620330    0.7289537114041512    0.2919243229873125 C
   0.0002058908852614    0.8542388128484375    0.2800818831611992 C
   0.2499111835732322    0.8961714048480036    0.2782223651486735 C
   0.2499190996473548    0.9796599957253642    0.2767108832622412 C
   0.0002809906241687    0.7710462608472624    0.2865633403273470 C
   0.4998088948860469    0.1048458127170108    0.2814710550915411 C
   0.7499019784292271    0.1465965730943378    0.2848636252305812 C
   0.7498833115278413    0.2286411085632919    0.2952615916248685 C
   0.4999935779195066    0.0215378042960753    0.2771583523368960 C
   0.4952152100824076    0.3491549561722355    0.3236509925982050 C
   0.7498881526026857    0.4789612515339531    0.3253583524475471 C
   0.5016942410433279    0.2698129896668721    0.3043129266187235 C
   0.5032091673717682    0.6056062339956758    0.3102135117623086 C
   0.7499048926594173    0.7299285810439889    0.2902420735315902 C
   0.4996396047327520    0.8542373770389343    0.2800792915197037 C
   0.7499129195867167    0.8960028177506553    0.2778653053992566 C
   0.7499266545047016    0.9795548244148030    0.2763640782876342 C
   0.4995593616564334    0.7710470224782259    0.2865608970676592 C
   0.7499146307211267    0.6475223390544040    0.3010975378692114 C
   0.2499089893370086    0.6466358975841580    0.3044705004186132 C
  -0.0001558542556611    0.0215390376490966    0.2771566992032302 C
   0.5109595127037329    0.5246063271822229    0.3264292374935912 C
   0.9888199341026921    0.5246113858505578    0.3264960178314718 C
   0.2498623475662660    0.3826076951198036    0.3390361267359097 N
   0.7498684019391925    0.3935718772685987    0.3291186986380233 N
   0.2500018431453330    0.4865735184316400    0.3883384089578069 Mn
