Title
1.0
   4.9440799999999996    0.0000000000000000    0.0000000000000000
   0.0000000000000000    8.5647549999999999    0.0000000000000000
   0.0000000000000000    0.0000000000000000   20.0000000000000000
C N Sc
9 5 1
direct
  -0.0018767561591714    0.2953077214507608    0.0960734351338635 C
   0.2500000000000000    0.0382966926852146    0.0963175765622662 C
  -0.0019671673540935    0.9555269770524493    0.0965800577892462 C
   0.7500000000000000    0.2071948286946242    0.0939729227763866 C
   0.5018767561591714    0.2953077214507608    0.0960734351338635 C
   0.7500000000000000    0.0407977779026636    0.0942104525512713 C
   0.7500000000000000    0.7108155630400472    0.0992367771907642 C
   0.7500000000000000    0.5375126046458927    0.0992478907847523 C
   0.5019671673540934    0.9555269770524493    0.0965800577892462 C
   0.5062184448703144    0.4554522682921662    0.1001512706163937 N
  -0.0062184448703142    0.4554522682921662    0.1001512706163937 N
  -0.0075988815318418    0.7922186354911224    0.1005305023135944 N
   0.5075988815318421    0.7922186354911224    0.1005305023135944 N
   0.2500000000000000    0.2134638972031002    0.0955920455180768 N
   0.2500000000000000    0.6265884312554626    0.1427318029102903 Sc
