Title
1.0
   8.5490480000000009    0.0000000000000000    0.0000000000000000
   0.0000000000000000    8.5490480000000009    0.0000000000000000
   0.0000000000000000    0.0000000000000000   20.0000000000000000
C N Au
19 5 1
direct
   0.9082403195477183    0.2058785637995963    0.0974094136446435 C
   0.9114212693799042    0.8008515615323129    0.0975127719595836 C
   0.1972493279387875    0.0840281602162709    0.0977887361041973 C
   0.0773941883536379    0.2002041100535526    0.0975824739227823 C
   0.1554709816537095    0.6481735518239427    0.0977706842169102 C
   0.0722007951932029    0.4999585422014088    0.0977338993934489 C
   0.1549659651565068    0.3542895210734576    0.0977005373474632 C
   0.0803728314125294    0.7991000009128129    0.0976691536418139 C
   0.3481402423892232    0.1675524321796112    0.0979045331289853 C
   0.4948604522515892    0.9193349987947668    0.0978036461520423 C
   0.3468277408051330    0.8358803760849416    0.0978385206457357 C
   0.7888354737072375    0.0867008879686114    0.0973960524835211 C
   0.6415170825861430    0.1666048407566973    0.0977668178981608 C
   0.7912029494295039    0.9190627873926195    0.0974354864820244 C
   0.8278479837775963    0.6523075178458472    0.0977563879041004 C
   0.8258138690032676    0.3522836583847321    0.0976801540099198 C
   0.6432685924520488    0.8390354355173946    0.0977331501565810 C
   0.3220062474855334    0.3319775070273123    0.0978350377608337 C
   0.3211482454824977    0.6716457306703983    0.0978126954628384 C
   0.4956229722699996    0.0868999298292624    0.0979275545883012 N
   0.9030212122557931    0.5018954455964140    0.0978239235119621 N
   0.6635263295355851    0.3274505310005119    0.0980711135701484 N
   0.6681903753796653    0.6763762297348143    0.0980119875151905 N
   0.1973881712820542    0.9150116378563266    0.0978040314888678 N
   0.4888783812711257    0.5022860417464049    0.0979362370099171 Au
