Title
1.0
   8.5490480000000009    0.0000000000000000    0.0000000000000000
   0.0000000000000000    8.5490480000000009    0.0000000000000000
   0.0000000000000000    0.0000000000000000   20.0000000000000000
C N Ir
20 4 1
direct
   0.9098447530438721    0.2060447568552984    0.0975505454429693 C
   0.9114581130482278    0.8002834189114683    0.0975973517662604 C
   0.2010190757294736    0.0836670741460090    0.0978846478623212 C
   0.0755976338729822    0.2055647472168213    0.0977267931073832 C
   0.1538614055288269    0.6487360630364067    0.0977465768442996 C
   0.0707408480399649    0.5017357524549159    0.0977334607817015 C
   0.1523740646173321    0.3560937614909575    0.0977765657075528 C
   0.0785461485480650    0.7979891746887788    0.0977553191933813 C
   0.4957901175475224    0.0867873586134679    0.0978062182367833 C
   0.3474531598633959    0.1660529760142506    0.0979271124388707 C
   0.4945884934477555    0.9159255525781220    0.0977489771553941 C
   0.3477533477727761    0.8333980903740333    0.0978780447941902 C
   0.7897052028836983    0.0862476088551644    0.0975092504651102 C
   0.6432019589747229    0.1669843712561788    0.0977170628899241 C
   0.7899301103918378    0.9185129742020338    0.0975114511645524 C
   0.8268313744377678    0.6511012598736698    0.0976978231610882 C
   0.8247816208372972    0.3546912847481508    0.0977060289200151 C
   0.6432944039671888    0.8360230728436899    0.0976500173838379 C
   0.3239512619219759    0.3383310494243639    0.0978445965311162 C
   0.3230615306969593    0.6663398322168854    0.0977818412334416 C
   0.9018133571021517    0.5026333861903596    0.0977353285804866 N
   0.6659760614346796    0.3313645236590038    0.0978556334621161 N
   0.6673387747473576    0.6730571083374455    0.0977997801262815 N
   0.1996957464815663    0.9172110340451183    0.0979454701819959 N
   0.4868034350625957    0.5000137679674251    0.0978191025688995 Ir
