Title
1.0
   8.5490480000000009    0.0000000000000000    0.0000000000000000
   0.0000000000000000    8.5490480000000009    0.0000000000000000
   0.0000000000000000    0.0000000000000000   20.0000000000000000
C N Ti
22 2 1
direct
   0.9098188325644470    0.2046324005639412    0.0954342565022314 C
   0.9038364031234565    0.5017950581129043    0.0952818006873674 C
   0.9098279462763155    0.7989402909889601    0.0954502020441911 C
   0.1967699200422558    0.0836919656810167    0.0954690838381848 C
   0.0750841671733065    0.2059880404663003    0.0954529052633448 C
   0.1967677710753301    0.9198916555499741    0.0954776677397105 C
   0.1540869493202893    0.6490630816637295    0.0953753135531117 C
   0.0730305578644046    0.5018057722122162    0.0953329865717483 C
   0.1540667281689237    0.3545379412219818    0.0953859517259232 C
   0.0750933460421903    0.7975895090049118    0.0954574438408449 C
   0.4951713282613084    0.0863516019627284    0.0953651628426091 C
   0.3471878978369276    0.1660192895157268    0.0954027672326042 C
   0.4951727970180274    0.9172390973020029    0.0953642644972938 C
   0.3471907913741210    0.8375919235083751    0.0954084136817294 C
   0.7899629251362741    0.0851311986030807    0.0954474288425011 C
   0.6434901987274816    0.1650658392669513    0.0953121124106091 C
   0.7899623075437211    0.9184430497875681    0.0954547689682377 C
   0.8270248907660057    0.6510285826262482    0.0953002589186973 C
   0.8270191247087684    0.3525427225191325    0.0952773985221863 C
   0.6434878919997865    0.8385117378155145    0.0953243053579837 C
   0.3222989089696375    0.3314237513548262    0.0953492539974896 C
   0.3223154026873322    0.6721781083899654    0.0953394742096246 C
   0.6665107791840926    0.3279545417601452    0.0951484837627138 N
   0.6665069300035215    0.6756060263277712    0.0951693091741837 N
   0.4937272041320684    0.5017668137940409    0.0949239858148560 Ti
