Title
1.0
   9.8694509999999998    0.0000000000000000    0.0000000000000000
   0.0000000000000000    8.5490480000000009    0.0000000000000000
   0.0000000000000000    0.0000000000000000   20.0000000000000000
C N Y
27 4 1
direct
   0.0562597105770744    0.0927262967126018    0.0883512590285025 C
   0.9308942877074678    0.1752829188095416    0.0897998031156496 C
   0.0562597423962907    0.9249265901149638    0.0880796326734758 C
   0.9297149001275191    0.3422029314114883    0.0934283863203039 C
   0.0562242218235861    0.5905014559588863    0.0912272655003996 C
   0.9319568608196539    0.6741216078750987    0.0919437451998667 C
   0.0562848370941617    0.4234674895901509    0.0931020881986618 C
   0.9318522484959915    0.8408274855236745    0.0897684853228360 C
   0.3052049157124225    0.0897319963293984    0.0884901619703105 C
   0.1816377285908595    0.1752655705833773    0.0896671997604455 C
   0.3060055311376816    0.9244821256947927    0.0890213453397405 C
   0.1828187736834390    0.3421509193959855    0.0932825676704652 C
   0.3065473904643810    0.5950659087316670    0.0983597562376353 C
   0.1804604663662381    0.6741550957158313    0.0916155961391405 C
   0.3105872800672766    0.4255904165085267    0.0970491442702247 C
   0.1806703287535269    0.8408078611084365    0.0894188540484790 C
   0.5562778036128240    0.0842562671882623    0.0921362788997283 C
   0.4316873447030338    0.1679022248252022    0.0906969787156131 C
   0.4340669204279947    0.3342156157635583    0.0943766770104837 C
   0.4282209189930876    0.8389459056397370    0.0958017653242060 C
   0.8073550068247161    0.0897151848995408    0.0887683077798709 C
   0.6809176120425313    0.1679472096643480    0.0908177147918546 C
   0.8065712116206548    0.9244894676343127    0.0895155865449868 C
   0.6785602909601727    0.3342144910237499    0.0945817023890633 C
   0.8059153061940609    0.5950296889199367    0.0988732269523729 C
   0.8019993786952939    0.4256116057069083    0.0973565100384030 C
   0.6843710831723990    0.8389185491587545    0.0963182027077552 C
   0.4235839382026578    0.6828971254515993    0.1078155628200184 N
   0.5562993274671112    0.4090836151442636    0.0987897366954321 N
   0.6889836068690599    0.6828976336529623    0.1086344144594598 N
   0.5563071540178097    0.9175123604747191    0.0955587306658379 N
   0.5551428723790289    0.5653023847877255    0.1830283134087929 Y
