Title
1.0
   4.9440799999999996    0.0000000000000000    0.0000000000000000
   0.0000000000000000    8.5647549999999999    0.0000000000000000
   0.0000000000000000    0.0000000000000000   20.0000000000000000
C Mn
15 1
direct
   0.2500000000000000    0.2068135041836832    0.0922976146137955 C
  -0.0010165077051676    0.2892294031547202    0.0958596131524445 C
   0.2500000000000000    0.0416467561600351    0.0885710896941792 C
  -0.0015860991888561    0.7943319198978163    0.0987624633803240 C
  -0.0007944942482867    0.9590538019846112    0.0891469479706214 C
   0.7500000000000000    0.2067677438594515    0.0890954241241339 C
   0.5010165077051674    0.2892294031547202    0.0958596131524445 C
   0.7500000000000000    0.0413231393613191    0.0862823296107726 C
   0.7500000000000000    0.7097175234281189    0.1021743413622837 C
   0.5015860991888563    0.7943319198978163    0.0987624633803240 C
   0.7500000000000000    0.5419279594927157    0.1065670337868315 C
   0.5007944942482868    0.9590538019846112    0.0891469479706214 C
   0.5101134543765367    0.4510076591236935    0.1092993341177927 C
  -0.0101134543765365    0.4510076591236935    0.1092993341177927 C
   0.2500000000000000    0.7211908507043009    0.1099001493566218 C
   0.2500000000000000    0.5433669544886929    0.1614873002090242 Mn
