Title
1.0
   4.9440799999999996    0.0000000000000000    0.0000000000000000
   0.0000000000000000   17.1295089999999988    0.0000000000000000
   0.0000000000000000    0.0000000000000000   20.0000000000000000
C N Fe
27 4 1
direct
   0.0000802781778144    0.1048646215722198    0.2881999468875348 C
   0.2498825653381607    0.1470056729705293    0.2906077627948696 C
   0.2498613636295140    0.2305558228488072    0.2975992628035384 C
   0.0057019980642771    0.3533907127756344    0.3140394387684277 C
  -0.0022551136580060    0.2719940223173206    0.3010456954790275 C
  -0.0052134604200839    0.6024998714856199    0.3049344679988694 C
   0.2499166002786853    0.7267587725443690    0.2938169304835907 C
   0.0004763233883555    0.8532371470224032    0.2873070918048068 C
   0.2499125825197098    0.8953385212261031    0.2864792508096162 C
   0.2498922530732345    0.9791856214394620    0.2857896085551527 C
   0.0008762093283231    0.7693782338883961    0.2905734151382583 C
   0.4996752985549299    0.1048668654299892    0.2881980655699413 C
   0.7498776909449505    0.1469103517873010    0.2897938714672725 C
   0.7498553690769930    0.2297417457555324    0.2953237949791081 C
   0.4999266224853031    0.0211851037186688    0.2860069372749037 C
   0.4940007566046180    0.3533928265312719    0.3140332002107785 C
   0.7499345223370635    0.4837398662660424    0.3141902560389356 C
   0.5019632857506090    0.2719966753481345    0.3010459156513620 C
   0.5050228986554776    0.6024945503341846    0.3048988067338526 C
   0.7499236457998851    0.7283241344623388    0.2921841866536821 C
   0.4993556058153996    0.8532351803023560    0.2873009963658167 C
   0.7499071952859891    0.8951604666813636    0.2862367341768329 C
   0.7498858950469447    0.9789829094921785    0.2855597152409278 C
   0.4989571535452262    0.7693768120737691    0.2905658123447088 C
   0.7499150312765280    0.6451143729974278    0.2985508940522647 C
   0.2498982595439686    0.6423900625795632    0.3015194044275439 C
  -0.0001502059256073    0.0211845384905928    0.2860081367992146 C
   0.5139029651383080    0.5222553858262260    0.3160770098707469 N
   0.9859344409227451    0.5222844381606606    0.3162471553294383 N
   0.2498549585988515    0.3881758040050338    0.3261270238219648 N
   0.7498873673095517    0.3984955839466112    0.3175450185138105 N
   0.2501626435122876    0.4850343057198792    0.3847591929531548 Fe
