Title
1.0
   4.9440799999999996    0.0000000000000000    0.0000000000000000
   0.0000000000000000    8.5647549999999999    0.0000000000000000
   0.0000000000000000    0.0000000000000000   20.0000000000000000
C N Cr
14 1 1
direct
  -0.0008957346554402    0.2896787288253342    0.0927567122362627 C
   0.2500000000000000    0.0433251161841740    0.0875783270645453 C
  -0.0001769473212300    0.7953206396374227    0.0996806844615585 C
  -0.0005819931771948    0.9607252571433583    0.0879104338753552 C
   0.7500000000000000    0.2066542012567466    0.0840605890151147 C
   0.5008957346554402    0.2896787288253342    0.0927567122362627 C
   0.7500000000000000    0.0419651706646083    0.0832367318109806 C
   0.7500000000000000    0.7086491233219983    0.1032997863501380 C
   0.5001769473212299    0.7953206396374227    0.0996806844615585 C
   0.7500000000000000    0.5383444332475950    0.1062442600208076 C
   0.5005819931771947    0.9607252571433583    0.0879104338753552 C
   0.5060689414712397    0.4486538691721457    0.1092587072411991 C
  -0.0060689414712394    0.4486538691721457    0.1092587072411991 C
   0.2500000000000000    0.7229141558034249    0.1123961850021262 C
   0.2500000000000000    0.2067541419742220    0.0899694670949226 N
   0.2500000000000000    0.5426366679907095    0.1665135780126235 Cr
