Title
1.0
   4.9440799999999996    0.0000000000000000    0.0000000000000000
   0.0000000000000000    8.5647549999999999    0.0000000000000000
   0.0000000000000000    0.0000000000000000   20.0000000000000000
C N Zn
10 4 1
direct
   0.2500000000000000    0.2120804100530079    0.1005643072869043 C
  -0.0021029864083605    0.2947944477023730    0.1004374014725008 C
   0.2500000000000000    0.0374864683873076    0.1005805820851054 C
  -0.0020852167472001    0.9547606948431578    0.1004798152275425 C
   0.7500000000000000    0.2082312473163487    0.1003410114913614 C
   0.5021029864083605    0.2947944477023730    0.1004374014725008 C
   0.7500000000000000    0.0413089765686983    0.1003629939064303 C
   0.7500000000000000    0.7149823481412014    0.0998888901706448 C
   0.7500000000000000    0.5345876211482560    0.0998496518855934 C
   0.5020852167472003    0.9547606948431578    0.1004798152275425 C
   0.5148641874745816    0.4570804574416604    0.1002078118603738 N
  -0.0148641874745814    0.4570804574416604    0.1002078118603738 N
  -0.0148751547489420    0.7924711184650730    0.1002568032088831 N
   0.5148751547489419    0.7924711184650730    0.1002568032088831 N
   0.2500000000000000    0.6247904914806540    0.1036288996353635 Zn
