Title
1.0
   9.8694509999999998    0.0000000000000000    0.0000000000000000
   0.0000000000000000    8.5490480000000009    0.0000000000000000
   0.0000000000000000    0.0000000000000000   20.0000000000000000
C N Nb
28 3 1
direct
   0.0556778164233524    0.0888779335665287    0.0826959257953189 C
   0.9311384385033898    0.1734072260284494    0.0829328603673349 C
   0.0572656598859783    0.9218481282558335    0.0843295005264409 C
   0.9310185561797664    0.3400744705884144    0.0845651565123490 C
   0.0567380202945516    0.5903808954417865    0.0853178295886880 C
   0.0560821712877827    0.4235588062284076    0.0841997301972292 C
   0.9321432276129761    0.8382717248055976    0.0864449967703755 C
   0.3054494315984653    0.0889051207737291    0.0875760458758371 C
   0.1817717570689298    0.1720986225307845    0.0846661645402892 C
   0.1813865542024463    0.3394576423203931    0.0861802272247129 C
   0.3034503515977650    0.5885595342813478    0.1011785464456739 C
   0.1811493349857355    0.6735221719493335    0.0895382941079225 C
   0.3063418901784040    0.4210152928350228    0.0967282951474042 C
   0.1826848399839516    0.8407595136027560    0.0879025053743501 C
   0.5555450838925947    0.0892663175314268    0.0918661067304099 C
   0.5544447539845234    0.9234472786224667    0.0988521457962494 C
   0.4294813378457586    0.3328221075435960    0.1019711639258640 C
   0.4271348673747306    0.8423906614860068    0.1035651426380840 C
   0.8064472346951475    0.0889421641527578    0.0852503660116512 C
   0.6807406726822316    0.1721952596306367    0.0896595943676923 C
   0.8068326039532459    0.9225466059922710    0.0885828352045335 C
   0.6825048982525315    0.3380387273444593    0.0990854826355263 C
   0.8110534889564157    0.5922217808457155    0.0997559571805296 C
   0.8067956416072245    0.4242083107515282    0.0944361805257338 C
   0.6821928652408382    0.8424744343027752    0.1007296091622519 C
   0.4177283726840156    0.6817764007438978    0.1206751366266399 C
   0.5552372713435874    0.4050678511978018    0.1180676281699056 C
   0.6948078583633148    0.6806261751085088    0.1185200014419244 C
   0.3066304451447949    0.9250882224313211    0.0905366845402886 N
   0.4292070248994118    0.1696793813998558    0.0918261231319551 N
   0.9323651528790348    0.6721329124942922    0.0878230624911552 N
   0.5581913763971110    0.5865843252123001    0.1802157009456950 Nb
