Title
1.0
   9.8694509999999998    0.0000000000000000    0.0000000000000000
   0.0000000000000000    8.5490480000000009    0.0000000000000000
   0.0000000000000000    0.0000000000000000   20.0000000000000000
C N V
28 3 1
direct
   0.0559582506914985    0.0909722952820478    0.0836829284865782 C
   0.9307938486221909    0.1744958407140293    0.0849982035232816 C
   0.0578204015716040    0.9238700743594267    0.0837072480499178 C
   0.9298206555502385    0.3420942590549759    0.0875716503012949 C
   0.0566357768658750    0.5904480079334464    0.0855239777812390 C
   0.9327006578892376    0.6739167652561222    0.0873656680199705 C
   0.0561127345394129    0.4229802064085815    0.0864220093580190 C
   0.9331958949318833    0.8406195881067797    0.0860585738296409 C
   0.3058797025986110    0.0874007282356594    0.0883910747275266 C
   0.1821157443907381    0.1723000280600532    0.0861827782616067 C
   0.1813307070701437    0.3389921432455676    0.0889183431010322 C
   0.3038144960489658    0.5879373996329514    0.1009921992575287 C
   0.1818922111048161    0.6732604461875068    0.0885037975028652 C
   0.3056155926656947    0.4202670376300904    0.0993741633219035 C
   0.1823924209653217    0.8401802619500282    0.0861799231861453 C
   0.5559343413670840    0.0862218691383383    0.0938929655658222 C
   0.5557313494196057    0.9205317579412192    0.0992684609354606 C
   0.4294684045844009    0.3312056671516631    0.1052176133825252 C
   0.4275629472701918    0.8389102897297149    0.1025487189096152 C
   0.8057956767052301    0.0898047383960986    0.0862892333899171 C
   0.6796757854223995    0.1717112704071681    0.0912261473814160 C
   0.8076974992334528    0.9244678579837148    0.0884510573032947 C
   0.6799240396384554    0.3371098435238178    0.1006069293770828 C
   0.8083561266305354    0.5939468837517177    0.0976373707558471 C
   0.8039197712991933    0.4253077637562371    0.0958683054463745 C
   0.6850493500201950    0.8406204835179617    0.0992092246623533 C
   0.4191655885573300    0.6796565693937766    0.1168039094420133 C
   0.5535433949398894    0.4052884914731889    0.1179080939505143 C
   0.6944940083934301    0.6818807834004609    0.1125209146644553 N
   0.3065948973198028    0.9243821269727422    0.0890062372758776 N
   0.4289003548002666    0.1666738008050849    0.0941073798665597 N
   0.5617463688923132    0.5927907205998310    0.1712398989823375 V
