Title
1.0
   9.8694509999999998    0.0000000000000000    0.0000000000000000
   0.0000000000000000    8.5490480000000009    0.0000000000000000
   0.0000000000000000    0.0000000000000000   20.0000000000000000
C N Zn
25 5 1
direct
   0.0557454006402520    0.0897663375838061    0.0927235546530981 C
   0.9322031339060405    0.1719576743594147    0.0934713087626296 C
   0.0572414071947931    0.9230341395435848    0.0929171880328018 C
   0.9337808775967017    0.3394749913728201    0.0927200814161498 C
   0.0567213185135318    0.5900194856842632    0.0909522383358461 C
   0.9335867490116485    0.6731410543766490    0.0928147277217354 C
   0.0567359859567671    0.4232039920185412    0.0908783053615984 C
   0.9322908579821606    0.8397026022667643    0.0936008812490326 C
   0.3059823952369468    0.0885341312478387    0.0961616658767380 C
   0.1809122650862999    0.1716916646971922    0.0933342072266759 C
   0.1795711181967243    0.3386706839072263    0.0925494613400068 C
   0.3022100538375756    0.5909161148427484    0.0963930296447031 C
   0.1797530861180054    0.6743589511691775    0.0926243045079578 C
   0.3025003271866860    0.4215102507395185    0.0965157351244263 C
   0.1808825528023196    0.8403412574666845    0.0935222884045320 C
   0.5564248694328060    0.0932238845199192    0.1011225338685005 C
   0.4284988438429592    0.1765846686529787    0.1001622105752877 C
   0.5550141591776249    0.9194770532209653    0.1009156624738852 C
   0.4280420310460551    0.8350639701072756    0.0998957990294972 C
   0.8061172755668345    0.0892021031385638    0.0961813947075734 C
   0.6836109639064266    0.1776277770620316    0.1000372691841484 C
   0.8061495185995539    0.9224142535763553    0.0961691396810621 C
   0.8102730260078594    0.5913298865549663    0.0965549551479904 C
   0.8103558698053633    0.4205222762848041    0.0966209338809598 C
   0.6829453217840946    0.8335452068097140    0.0998222291758046 C
   0.4204216272581148    0.3381757329142145    0.1019732402839722 N
   0.4198039837573507    0.6764624250744142    0.1016319519245851 N
   0.6917302729278789    0.3391650563773984    0.1016735667724643 N
   0.6913982328713948    0.6726693507888893    0.1013616592380513 N
   0.3061846760790649    0.9235942411067601    0.0959634510442465 N
   0.5560477986701655    0.5054937825345183    0.1097000253540975 Zn
