Title
1.0
   9.8694509999999998    0.0000000000000000    0.0000000000000000
   0.0000000000000000    8.5490480000000009    0.0000000000000000
   0.0000000000000000    0.0000000000000000   20.0000000000000000
C N Pt
26 5 1
direct
   0.0559099513103864    0.0931632856410506    0.0912886619544101 C
   0.9298860218187770    0.1751105219404099    0.0920363859557467 C
   0.0559640543453495    0.9254610124413922    0.0913546269966835 C
   0.9284887541690217    0.3426990926773295    0.0935776192905694 C
   0.0553187097542260    0.5907968636711755    0.0918310822645125 C
   0.9309126611160228    0.6740287422539190    0.0946331775369567 C
   0.0569544493562757    0.4246035616735507    0.0921001657336645 C
   0.9311343926191196    0.8413939241423348    0.0933969306218511 C
   0.3050735481348835    0.0890420533904094    0.0906723900283774 C
   0.1824059724886911    0.1766296785309043    0.0910131634788042 C
   0.3057028303877548    0.9236045361211376    0.0900373215453694 C
   0.1837615037512680    0.3431675501266556    0.0910733334521463 C
   0.3085722544969938    0.5953532907492021    0.0877471856438468 C
   0.1805755899042993    0.6732144047666573    0.0899007134759713 C
   0.1807407439539543    0.8398449042152927    0.0900204814045282 C
   0.5548031374349865    0.0825346803371632    0.0934065853846118 C
   0.4310013896172394    0.1685590076749633    0.0924684089785205 C
   0.4356413004798768    0.3362900410732933    0.0957297190696838 C
   0.4269941596769034    0.8332538866835163    0.0886369398631409 C
   0.8060461356838177    0.0894841234601642    0.0921823243156160 C
   0.6789633266749441    0.1684594152606627    0.0945165846395678 C
   0.8057612181092217    0.9240481846168953    0.0934180120812357 C
   0.6752296145859116    0.3348396192663478    0.0988959349806088 C
   0.8044461344030330    0.5945434145808935    0.1004254447325051 C
   0.8010999454644374    0.4253100537770400    0.0977841528864179 C
   0.6828599211237255    0.8358713791903192    0.0985836251371120 C
   0.4252651304486957    0.6765592313163558    0.0849710414638119 N
   0.5530554076830366    0.4121995505161552    0.1037927871320727 N
   0.6865680102801025    0.6802934640818199    0.1087496924442596 N
   0.5552295578718370    0.9148492888299204    0.0926661740324920 N
   0.3110845537788282    0.4262100157583705    0.0904540906719715 N
   0.5741886190763864    0.5788272212347008    0.1883102428029498 Pt
