Title
1.0
   9.8694509999999998    0.0000000000000000    0.0000000000000000
   0.0000000000000000    8.5490480000000009    0.0000000000000000
   0.0000000000000000    0.0000000000000000   20.0000000000000000
C N Zn
25 6 1
direct
   0.0559346140989634    0.0917070982927637    0.0885229910498168 C
   0.9310524627000032    0.1749116590332007    0.0893845786341052 C
   0.0570830300778865    0.9236651114203104    0.0880905014765156 C
   0.9297537687409505    0.3421173022608565    0.0917069015322096 C
   0.0565744593833286    0.5917155326347526    0.0892735909131391 C
   0.0559185029498952    0.4241949239909823    0.0908090503647869 C
   0.9330610162451557    0.8398784882660988    0.0892855806339095 C
   0.3064005752107589    0.0887884180121634    0.0901370353787587 C
   0.1824288796436861    0.1741172008853058    0.0899449298677390 C
   0.1828991407570403    0.3414015888180936    0.0917732656297387 C
   0.3058307259683078    0.5923080649455731    0.0966722308702328 C
   0.1802373477313707    0.6746534912490674    0.0898034290414200 C
   0.3103647277296699    0.4234807110954791    0.0961757733699013 C
   0.1819024220385534    0.8419644936763103    0.0889517331386377 C
   0.5562839734545212    0.0844775347343524    0.0936634920712467 C
   0.5550066168015796    0.9170422509965805    0.0972881784996454 C
   0.4344701991588620    0.3334226046110390    0.0979964975173099 C
   0.4264860351039459    0.8363664075043977    0.0978684846818540 C
   0.8064800725798962    0.0887522085394485    0.0891801155467933 C
   0.6798370005973030    0.1692974294399209    0.0916322726112504 C
   0.8079802534055223    0.9225258741838361    0.0902199199399385 C
   0.6780586562795551    0.3368193805691483    0.0973775143269091 C
   0.8076869348783522    0.5956424594113595    0.0978788373697458 C
   0.8026382904739631    0.4258455218601838    0.0965018488115710 C
   0.6845847320734049    0.8374329338848761    0.0975412350202142 C
   0.4193230173227747    0.6821330615899329    0.1060279519062994 N
   0.5538145819314563    0.4049853785496146    0.1060529905917025 N
   0.6941144177837052    0.6790263360360350    0.1069782901863978 N
   0.3051315489785839    0.9252032611618913    0.0900562515641074 N
   0.4303759833816098    0.1661248329171105    0.0924712226726304 N
   0.9327240422201575    0.6732537828056738    0.0900904442466920 N
   0.5552009702992429    0.5869906566236446    0.1763178605347973 Zn
