Title
1.0
   4.9440799999999996    0.0000000000000000    0.0000000000000000
   0.0000000000000000    8.5647549999999999    0.0000000000000000
   0.0000000000000000    0.0000000000000000   20.0000000000000000
C Ni
15 1
direct
   0.2500000000000000    0.2067741614383637    0.0935990856331490 C
  -0.0001837971764288    0.2895732810960911    0.0971950897019247 C
   0.2500000000000000    0.0417272465906191    0.0901152117714230 C
  -0.0015513030737269    0.7930717552025237    0.0977519205235605 C
  -0.0002307357290761    0.9590409252357761    0.0901429471297939 C
   0.7500000000000000    0.2068512355212920    0.0911480851443548 C
   0.5001837971764289    0.2895732810960911    0.0971950897019247 C
   0.7500000000000000    0.0409582199386666    0.0880493161950234 C
   0.7500000000000000    0.7100682732810368    0.0996582413469082 C
   0.5015513030737266    0.7930717552025237    0.0977519205235605 C
   0.7500000000000000    0.5434571546613010    0.1047782227161920 C
   0.5002307357290762    0.9590409252357761    0.0901429471297939 C
   0.5143615658078415    0.4511302049447188    0.1095418685169471 C
  -0.0143615658078416    0.4511302049447188    0.1095418685169471 C
   0.2500000000000000    0.7214363652463532    0.1088881737163698 C
   0.2500000000000000    0.5430950103641496    0.1570120117321347 Ni
