Title
1.0
   4.9440799999999996    0.0000000000000000    0.0000000000000000
   0.0000000000000000    8.5647549999999999    0.0000000000000000
   0.0000000000000000    0.0000000000000000   20.0000000000000000
C N Mo
10 4 1
direct
   0.2500000000000000    0.2110663595039501    0.0966682319977332 C
  -0.0021287796388058    0.2937055093251387    0.0962230226980648 C
   0.2500000000000000    0.0384884404443968    0.0966768915348134 C
  -0.0021480860178460    0.9558600640345254    0.0962432322832427 C
   0.7500000000000000    0.2086768450242242    0.0917588424560731 C
   0.5021287796388059    0.2937055093251387    0.0962230226980648 C
   0.7500000000000000    0.0408923895207892    0.0917609425455886 C
   0.7500000000000000    0.7117390530115238    0.0993067818844406 C
   0.7500000000000000    0.5378086325575203    0.0992961220783818 C
   0.5021480860178460    0.9558600640345254    0.0962432322832427 C
   0.5118796854036364    0.4556962232805599    0.1033766629180435 N
  -0.0118796854036362    0.4556962232805599    0.1033766629180435 N
  -0.0119171408385060    0.7938534829884160    0.1033980537842270 N
   0.5119171408385061    0.7938534829884160    0.1033980537842270 N
   0.2500000000000000    0.6247787206803184    0.1340302441358167 Mo
