Title
1.0
   4.9440799999999996    0.0000000000000000    0.0000000000000000
   0.0000000000000000    8.5647549999999999    0.0000000000000000
   0.0000000000000000    0.0000000000000000   20.0000000000000000
C N Ti
9 5 1
direct
  -0.0016818375396922    0.2950929210337112    0.0960203164528745 C
   0.2500000000000000    0.0386257031422551    0.0965366591339515 C
  -0.0017537422860266    0.9557489723679875    0.0967253838340040 C
   0.7500000000000000    0.2075937044113165    0.0931249876912377 C
   0.5016818375396924    0.2950929210337112    0.0960203164528745 C
   0.7500000000000000    0.0405901856281128    0.0935575205595764 C
   0.7500000000000000    0.7107011069533130    0.1001466169481057 C
   0.7500000000000000    0.5379828287239933    0.1000510237635382 C
   0.5017537422860269    0.9557489723679875    0.0967253838340040 C
   0.5067507362906962    0.4556133875131350    0.1017498673201806 N
  -0.0067507362906961    0.4556133875131350    0.1017498673201806 N
  -0.0078130445453750    0.7923545694299476    0.1021719505622676 N
   0.5078130445453750    0.7923545694299476    0.1021719505622676 N
   0.2500000000000000    0.2133086457279178    0.0958924851183004 N
   0.2500000000000000    0.6252591247235304    0.1353356704466402 Ti
