Title
1.0
   4.9440799999999996    0.0000000000000000    0.0000000000000000
   0.0000000000000000   17.1295089999999988    0.0000000000000000
   0.0000000000000000    0.0000000000000000   20.0000000000000000
C N Zr
28 3 1
direct
   0.0021683616739490    0.1041074494919746    0.2946144606869454 C
   0.2526455030178709    0.1461106726431355    0.2968273171942850 C
   0.2531540294205468    0.2292344989880590    0.3021385412409971 C
   0.0077671301131950    0.3521526200175192    0.3120734282110957 C
   0.0019620343736008    0.2707871796892849    0.3031276157241177 C
  -0.0055830545837672    0.5996057170737424    0.2921093674876407 C
   0.2506332096174290    0.7265346265256896    0.2936906734161245 C
   0.0023376299974623    0.8528743739641202    0.2916111354542293 C
   0.2519867393582751    0.8949801684217911    0.2919520051310168 C
   0.2522024149349588    0.9786053660599358    0.2924780930691819 C
   0.0027676524268262    0.7693477649015817    0.2920402721200113 C
   0.5023331513067961    0.1040226052581454    0.2948903471694236 C
   0.7518955886534666    0.1462243528395277    0.2955404939138955 C
   0.7518364988053026    0.2293566110443559    0.2990046210505055 C
   0.5022587886998727    0.0205097840620960    0.2930171915599718 C
   0.4976084282622882    0.3540158500293770    0.3139704168756965 C
   0.7608698600215701    0.4799412011026034    0.3037033044469610 C
   0.5032366906089178    0.2717252681231228    0.3044745326017720 C
   0.5056378636542564    0.6029700359421125    0.3029997169662397 C
   0.7518441036029339    0.7278661850553747    0.2937583830592334 C
   0.5010795962776070    0.8527863387191646    0.2923883614103454 C
   0.7515999135326081    0.8947526392377311    0.2918513941275576 C
   0.7520495650455032    0.9783596117987347    0.2922210829650811 C
   0.5000358761865975    0.7689812174465247    0.2937777195554839 C
   0.7506624233497475    0.6452902412597579    0.2965395564666674 C
   0.2510066989621688    0.6414481466177934    0.2951141305042752 C
   0.0020753558486717    0.0206188020198278    0.2927880714009418 C
   0.5327389507668460    0.5217041849760891    0.3219546123310815 C
   0.9869969941048605    0.5171510283909828    0.2732192008105530 N
   0.2499475928038499    0.3911548796893817    0.3262614641928174 N
   0.7559448371118460    0.3955941651297956    0.3113197946279145 N
   0.1631225720439478    0.5097374134806576    0.3711076942278875 Zr
