Title
1.0
   8.5490480000000009    0.0000000000000000    0.0000000000000000
   0.0000000000000000    8.5490480000000009    0.0000000000000000
   0.0000000000000000    0.0000000000000000   20.0000000000000000
C N Cr
18 6 1
direct
   0.9082372602714600    0.2058951525577255    0.0974935849299626 C
   0.9106742766523843    0.8007321432761439    0.0975432620273347 C
   0.1959810321228236    0.0839797571394356    0.0977080996208842 C
   0.0757779162355392    0.2014247368286211    0.0975768166951747 C
   0.1570168510217547    0.6514660483042304    0.0977556177808103 C
   0.0776187166322635    0.5007095065862736    0.0977250623720025 C
   0.1568106373435056    0.3509076655568122    0.0977803471119514 C
   0.0785335628253871    0.7988187948439107    0.0976196410048432 C
   0.4935457971372536    0.0881620165180325    0.0978494048953034 C
   0.3429411846024467    0.1665577088743855    0.0979436367115531 C
   0.4931225457384352    0.9165678841977994    0.0977777048764878 C
   0.3433952429672076    0.8350354216125490    0.0978432017439714 C
   0.7884156841655744    0.0875848553523679    0.0975298986961960 C
   0.6418164044380085    0.1697274390082950    0.0978050388998992 C
   0.7891573837069301    0.9185083579104796    0.0975263177762929 C
   0.8294149891346503    0.6510976481569637    0.0976302219489535 C
   0.8274572641994190    0.3543045905486334    0.0976586484936996 C
   0.6429049505669887    0.8350192495797374    0.0977031163291303 C
   0.9076320615329989    0.5022983074632992    0.0977330143015042 N
   0.3189677575093419    0.3280035480094800    0.0980485185813815 N
   0.3192654381770259    0.6764350075747415    0.0979107992391523 N
   0.6667950929270373    0.3336180876096143    0.0979586694627480 N
   0.6691768682425153    0.6713206002479062    0.0978222906594066 N
   0.1972789026342624    0.9155356296058417    0.0977340546654316 N
   0.4934741792147795    0.5010798426367189    0.0980280311759054 Cr
