Title
1.0
   4.9440799999999996    0.0000000000000000    0.0000000000000000
   0.0000000000000000    8.5647549999999999    0.0000000000000000
   0.0000000000000000    0.0000000000000000   20.0000000000000000
C N Ru
11 3 1
direct
   0.2439336684103887    0.2086551547410597    0.0980255939383832 C
  -0.0071263057761000    0.2955927789753152    0.1023193305820073 C
   0.2464857601533648    0.0376868716827497    0.0985606808160235 C
  -0.0036228371860521    0.9538805637631154    0.1018299333335316 C
   0.7477194623618403    0.2091113713566350    0.0941163911800876 C
   0.4948330043640388    0.2911352453875464    0.0917225115700470 C
   0.7508627271160502    0.0405904273281169    0.0948297456474967 C
   0.7523991388430782    0.7151334129711421    0.1011202198230588 C
   0.7490760891224369    0.5390222743264119    0.1005653107468897 C
   0.5021998916697953    0.9560713280857391    0.0944944941404980 C
   0.5060944496326272    0.4571878580162135    0.0895996687753678 C
  -0.0128048729374947    0.4583568795180588    0.1147367614576378 N
  -0.0137209905851176    0.7921367407968423    0.1128468053019789 N
   0.5161810211933439    0.7945348547325705    0.0924948663238134 N
   0.2774897936178004    0.6225852383184869    0.1207176863631824 Ru
