Title
1.0
   8.5490480000000009    0.0000000000000000    0.0000000000000000
   0.0000000000000000    8.5490480000000009    0.0000000000000000
   0.0000000000000000    0.0000000000000000   20.0000000000000000
C N Co
20 4 1
direct
   0.9089800548406042    0.2066911344535598    0.0977978001136856 C
   0.9049803006381061    0.5038197648968200    0.0977759958327370 C
   0.9095552606311044    0.8013992296399857    0.0975658089729132 C
   0.2005492374888708    0.0843330096400732    0.0977954972619582 C
   0.0762271108391401    0.2060076237097611    0.0978242842309893 C
   0.1580426911821034    0.6515711259607154    0.0977325910567738 C
   0.0759013824580623    0.5030807309648262    0.0977635947490729 C
   0.1596411426130245    0.3575815790482765    0.0977833411912827 C
   0.0786046782329080    0.7986918858304060    0.0976774538316281 C
   0.4941924306086219    0.0839986102871525    0.0977468005781090 C
   0.3482953153997637    0.1645349896968132    0.0977466015166652 C
   0.4932683618752428    0.9132779472263931    0.0977600358376579 C
   0.3452869564449690    0.8322368727078263    0.0978202706636944 C
   0.7875268284024083    0.0862910804286055    0.0976943118573632 C
   0.6404690191392246    0.1671306596952666    0.0977574240251661 C
   0.7882988017196556    0.9187018262420260    0.0975956010540426 C
   0.8265531832661632    0.6519622906048287    0.0976608716485156 C
   0.8234077664717799    0.3560721297702151    0.0978597397235150 C
   0.6404768609423055    0.8328416506580735    0.0976903978893865 C
   0.3280108094864068    0.3365082603673676    0.0976965188852645 C
   0.3209465665766465    0.6729636945686738    0.0978283145792209 N
   0.6609475119804182    0.3319399069438088    0.0978737546479145 N
   0.6642124932766614    0.6717403502257029    0.0977288433485366 N
   0.1993698666697289    0.9162507097612939    0.0978209615127267 N
   0.4916673688160728    0.4951629366715498    0.0977081849911536 Co
