Title
1.0
   4.9440799999999996    0.0000000000000000    0.0000000000000000
   0.0000000000000000   17.1295089999999988    0.0000000000000000
   0.0000000000000000    0.0000000000000000   20.0000000000000000
C N Os
28 2 1
direct
   0.0045400534533929    0.1056096056644237    0.2948032632492139 C
   0.2533374871321022    0.1484740411507872    0.2958171217785654 C
   0.2543503267809458    0.2328753676995732    0.2996533258571445 C
   0.0048726196738001    0.2747988958174993    0.3036812929562032 C
  -0.0074157497119819    0.6005145592683464    0.3060796615635334 C
   0.2445503131524157    0.7275574431291921    0.2949163864798502 C
  -0.0019039647141844    0.8537727924329823    0.2938241807593946 C
   0.2490358978999719    0.8957029299850530    0.2933557986830132 C
   0.2511920864008105    0.9796649640841734    0.2933643257876565 C
  -0.0039384524138601    0.7698653652445314    0.2949207280769509 C
   0.5032142383997515    0.1061901724279455    0.2939830452669064 C
   0.7557635352686823    0.1473963648679085    0.2947271538486876 C
   0.7589148988441350    0.2311456514733009    0.2974812777563197 C
   0.5012674037752652    0.0220718433929373    0.2931734323863204 C
   0.7499831160057431    0.3923268958460658    0.3073427752522435 C
   0.7365948168215227    0.4776853591463090    0.3113295423308177 C
   0.5094323074331956    0.2721704235261250    0.2984917115182806 C
   0.4913273339080081    0.6029384412119739    0.2938466483714323 C
   0.7461412819328872    0.7275191247805701    0.2944926226359347 C
   0.4981254051902314    0.8535093121353242    0.2929713221646527 C
   0.7485273775502547    0.8957796162187652    0.2931989677958118 C
   0.7507586059711225    0.9798595282564830    0.2931374779984318 C
   0.4960185119230992    0.7694050039584854    0.2932060531891270 C
   0.7450285215673103    0.6434506348648610    0.2966879449071607 C
   0.2413744053682441    0.6436515867896235    0.2978870297518278 C
   0.0020748310150067    0.0216545693143127    0.2936849968208243 C
   0.4977385120778903    0.5200554739744885    0.2953364016987485 C
   0.9896583864337508    0.5186757787228142    0.3260500434124707 C
   0.5184472363936009    0.3515983632027397    0.3008831080073102 N
  -0.0094205410442411    0.3562995780164740    0.3148481769390731 N
   0.2804161975111301    0.4391223133959252    0.3318841827560451 Os
