Title
1.0
   4.9440799999999996    0.0000000000000000    0.0000000000000000
   0.0000000000000000    8.5647549999999999    0.0000000000000000
   0.0000000000000000    0.0000000000000000   20.0000000000000000
C N Cu
13 2 1
direct
  -0.0038421408515266    0.2881889989431486    0.0871421946355847 C
   0.2500000000000000    0.0441303253975233    0.0856630555025254 C
   0.0044458369013136    0.8010507624542565    0.1082315056948164 C
   0.0004235878527952    0.9607058979581223    0.0879968765012105 C
   0.7500000000000000    0.2031145669351875    0.0775986985911384 C
   0.5038421408515261    0.2881889989431486    0.0871421946355847 C
   0.7500000000000000    0.0391412620651673    0.0790879027939737 C
   0.7500000000000000    0.7116358526119735    0.1118200991829739 C
   0.4955541630986864    0.8010507624542565    0.1082315056948164 C
   0.7500000000000000    0.5391310182006708    0.1087172633225055 C
   0.4995764121472051    0.9607058979581223    0.0879968765012105 C
   0.5131257324681687    0.4434103116422172    0.1058590898587159 C
  -0.0131257324681687    0.4434103116422172    0.1058590898587159 C
   0.2500000000000000    0.7390761117801208    0.1266233865800776 N
   0.2500000000000000    0.2063124581478168    0.0835814862299664 N
   0.2500000000000000    0.5307464628660519    0.1609607744161934 Cu
