Title
1.0
   8.5490480000000009    0.0000000000000000    0.0000000000000000
   0.0000000000000000    8.5490480000000009    0.0000000000000000
   0.0000000000000000    0.0000000000000000   20.0000000000000000
C N Mo
19 5 1
direct
   0.9096301516631465    0.2054081959396459    0.0973762040314700 C
   0.9113911902275290    0.8016087442992342    0.0973319326742931 C
   0.1972714554825760    0.0836956912482829    0.0973538841869098 C
   0.0751292112160855    0.2023998770412942    0.0972984831995613 C
   0.1539511237865541    0.6525926255501171    0.0979151956849873 C
   0.0745010836051474    0.5014220635594488    0.0978182245464946 C
   0.1534700671443893    0.3539968965947469    0.0975637431902230 C
   0.0781232123764490    0.8001202548492208    0.0975463788968433 C
   0.4943475708129150    0.0847630529778684    0.0978203029359003 C
   0.3450084332514841    0.1631704179393520    0.0976123850320856 C
   0.4936351696288244    0.9143433029181893    0.0977807417365573 C
   0.3426471010289730    0.8354065568472916    0.0978400857241502 C
   0.7893273084408149    0.0864670309513202    0.0974287826885707 C
   0.6428893076474659    0.1658568971428581    0.0978800879291041 C
   0.7901038145590341    0.9191074184283068    0.0973226761858904 C
   0.8310433364038805    0.6528413738264913    0.0976965308330788 C
   0.8280682347913610    0.3537434108650477    0.0978179842241596 C
   0.6441538749620294    0.8359655912255953    0.0976265468868274 C
   0.3210604125452427    0.3312177072277624    0.0978804869490133 C
   0.9056226813670397    0.5031806210202717    0.0978999042845146 N
   0.3156038176045989    0.6774092602935836    0.0982659611938269 N
   0.6685380694124700    0.3300380821419605    0.0982658794713403 N
   0.6722074127711969    0.6744969779291593    0.0979111879009195 N
   0.1967609520135190    0.9165259615735746    0.0975284493259190 N
   0.4909270072572655    0.4990119876093966    0.0989229602873325 Mo
