Title
1.0
   4.9440799999999996    0.0000000000000000    0.0000000000000000
   0.0000000000000000   17.1295089999999988    0.0000000000000000
   0.0000000000000000    0.0000000000000000   20.0000000000000000
C N Cu
28 2 1
direct
  -0.0013133448897864    0.1054994049741374    0.2989177681104869 C
   0.2477277313141804    0.1483294151941270    0.2992830587508898 C
   0.2476325557071738    0.2321274022115896    0.2998707293285703 C
  -0.0031547798293294    0.2747910201056831    0.2996116795586608 C
   0.0028011937834787    0.6018217946434183    0.2993458090204638 C
   0.2511212917027205    0.7263684271387064    0.2990245553072700 C
   0.0009966163560071    0.8529479513821659    0.2983657642417445 C
   0.2498152401773638    0.8953194224695068    0.2982650693784963 C
   0.2492731158319746    0.9793754118433815    0.2983461167377673 C
   0.0012078048890945    0.7685389514394262    0.2987540724290175 C
   0.4985423501358094    0.1057799373044613    0.2991411413396270 C
   0.7491104235313673    0.1475738576276597    0.2993517842918276 C
   0.7479989567210162    0.2317390501199262    0.3000846576245424 C
   0.4989014653506013    0.0216325617083714    0.2985956722811534 C
   0.7538459123858029    0.3939245256116371    0.3011412808379078 C
   0.7569491887105229    0.4801967583358451    0.3008970737561005 C
   0.4980403711679408    0.2741383305121988    0.3010938986588424 C
   0.4995745810111539    0.6006578376795562    0.3003643912002827 C
   0.7504628305638312    0.7272882409587387    0.2990552806617395 C
   0.4990836709193548    0.8530014790919608    0.2984442425658883 C
   0.7498313195380265    0.8949050283938107    0.2983086643602686 C
   0.7491952199631284    0.9792445634430451    0.2983872502981026 C
   0.5000705107354352    0.7687046434388634    0.2989107441038001 C
   0.7509189671837448    0.6438011389823204    0.2995388494379169 C
  -0.0008487171137391    0.0214539969048268    0.2984689877182851 C
   0.5054443800562126    0.5185431055944917    0.3019772001595090 C
   0.0029284127735264    0.5201240345169683    0.2991625969598993 C
   0.5084493038351003    0.3566908090273002    0.3031813255136133 C
  -0.0075985560072192    0.3551758729001434    0.2987114707390960 N
   0.2515043838797572    0.6442146620554872    0.2994343790156535 N
   0.2514945996157495    0.4374323643902428    0.3010244856125277 Cu
