Title
1.0
   8.5490480000000009    0.0000000000000000    0.0000000000000000
   0.0000000000000000    8.5490480000000009    0.0000000000000000
   0.0000000000000000    0.0000000000000000   20.0000000000000000
C N Au
22 2 1
direct
   0.9103454324151751    0.2050759073835606    0.0954532661699618 C
   0.9025751677569248    0.5018102842139954    0.0952901822155246 C
   0.9103541511340827    0.7985101798644443    0.0954703190222248 C
   0.1988994111652010    0.0833396766490010    0.0954706591071604 C
   0.0749747957026904    0.2069458706147714    0.0954526300049218 C
   0.1988939629929846    0.9202193840867373    0.0954788541222987 C
   0.1542116414625923    0.6476314135421031    0.0953594739387963 C
   0.0720671322068438    0.5017995762606049    0.0953285200920550 C
   0.1541962393551780    0.3559528769496691    0.0953541400039878 C
   0.0749756683061825    0.7966163215570690    0.0954695264044376 C
   0.4962168371716162    0.0867007191141850    0.0953526786557015 C
   0.3496987008717843    0.1679596140106673    0.0953664095177493 C
   0.4962102387070625    0.9168813161072354    0.0953555389770671 C
   0.3497061249151007    0.8356187905212358    0.0953717076375612 C
   0.7904976996599343    0.0847260395464513    0.0954669708712481 C
   0.6433768449686449    0.1654439439472257    0.0953082168606406 C
   0.7904986276731623    0.9188604884937811    0.0954749636849541 C
   0.8251039019534322    0.6499419293043448    0.0952973741103489 C
   0.8251085243430518    0.3536618721607360    0.0952847371306230 C
   0.6433729238515606    0.8381377517085273    0.0953173061209808 C
   0.3212006631935408    0.3318781677679740    0.0952858157178437 C
   0.3212160358590291    0.6717094843763349    0.0952847478356822 C
   0.6664123159624304    0.3271401009368751    0.0951342298160100 N
   0.6664070588498128    0.6764318949618767    0.0951480387216034 N
   0.4888918995219749    0.5017963959206065    0.0951286932605950 Au
