Title
1.0
   4.9440799999999996    0.0000000000000000    0.0000000000000000
   0.0000000000000000    8.5647549999999999    0.0000000000000000
   0.0000000000000000    0.0000000000000000   20.0000000000000000
C N Ag
12 3 1
direct
   0.2500000000000000    0.2126541289539859    0.0904020295946787 C
  -0.0055651909996267    0.2942513936392662    0.0918476072620423 C
   0.2500000000000000    0.0451831978387538    0.0890772111998917 C
   0.0049324046589842    0.7937222936756582    0.1001661748432912 C
   0.0000183811899205    0.9597669123844068    0.0895229587801279 C
   0.7500000000000000    0.2074011885511897    0.0859723964366323 C
   0.5055651909996268    0.2942513936392662    0.0918476072620423 C
   0.7500000000000000    0.0411447480628257    0.0855399195559523 C
   0.7500000000000000    0.7045220719765320    0.1019393296725645 C
   0.4950675953410157    0.7937222936756582    0.1001661748432912 C
   0.7500000000000000    0.5296826269893647    0.1011636344749264 C
   0.4999816188100796    0.9597669123844068    0.0895229587801279 C
   0.5115450191892416    0.4516977537587440    0.1007687333200602 N
  -0.0115450191892413    0.4516977537587440    0.1007687333200602 N
   0.2500000000000000    0.7235473787406939    0.1112204526065437 N
   0.2500000000000000    0.5369879519705041    0.1925860780477746 Ag
