Title
1.0
   4.9440799999999996    0.0000000000000000    0.0000000000000000
   0.0000000000000000    8.5647549999999999    0.0000000000000000
   0.0000000000000000    0.0000000000000000   20.0000000000000000
C N Ti
13 2 1
direct
   0.2487214706458380    0.2087589756791684    0.0908521492562841 C
  -0.0057219285785230    0.2898451790745437    0.0931174933579788 C
   0.2507646381252619    0.0427375798399182    0.0858848314190575 C
   0.0059199410589156    0.7963749241694448    0.0986174833926532 C
   0.0012056888619293    0.9590116323657605    0.0856508983158838 C
   0.7482296441060106    0.2066418113126481    0.0851928343625469 C
   0.5012918906120336    0.2893759556079191    0.0957080071304077 C
   0.7513654887675693    0.0411690578938402    0.0818007161636325 C
   0.7562125782600176    0.7062491474152532    0.1042972664976126 C
   0.5028970048731712    0.7962061180118922    0.0997594979154194 C
   0.7512671861356800    0.5354899277597415    0.1087002086332792 C
   0.5027323835427873    0.9590186469684175    0.0866061761496058 C
   0.5107985560510899    0.4479801042477141    0.1150214922780451 C
  -0.0112792881603085    0.4472633284674531    0.1067953650553320 N
   0.2544652688082533    0.7286185738227442    0.1131209534296304 N
   0.2311294768902743    0.5452590373635411    0.1713866266426383 Ti
