Title
1.0
   4.9440799999999996    0.0000000000000000    0.0000000000000000
   0.0000000000000000    8.5647549999999999    0.0000000000000000
   0.0000000000000000    0.0000000000000000   20.0000000000000000
C N Zn
11 3 1
direct
   0.2476370064353809    0.2099728987007631    0.1002080687710202 C
  -0.0056935710855624    0.2959674513562155    0.0956655703433204 C
   0.2504829177212891    0.0380302982821641    0.0999861053760778 C
  -0.0002312484679643    0.9544825499545241    0.1014076096811111 C
   0.7482685953295796    0.2089846097839647    0.1010142983523927 C
   0.4981933709423634    0.2936579218814453    0.1053259569524816 C
   0.7522194769155904    0.0409684895848138    0.1005319384608694 C
   0.7525198844696600    0.7167977110509955    0.0976791772918270 C
   0.7492572789833903    0.5359541235229665    0.0982284533671311 C
   0.5057011752805592    0.9550886424610775    0.0983114047474454 C
   0.5140975871571952    0.4591755188306463    0.1151429715994749 C
  -0.0168120197931147    0.4554927905584621    0.0844032457298201 N
  -0.0130593200884441    0.7918288270075432    0.1064540781526625 N
   0.5178375707595509    0.7940383468943353    0.0907095973415068 N
   0.2495812954405255    0.6212408201300856    0.1129115238328623 Zn
