Title
1.0
   4.9440799999999996    0.0000000000000000    0.0000000000000000
   0.0000000000000000    8.5647549999999999    0.0000000000000000
   0.0000000000000000    0.0000000000000000   20.0000000000000000
C N Hf
13 1 1
direct
   0.0006657087942950    0.2926339026955529    0.0941368144029502 C
   0.2500000000000000    0.0435837797715149    0.0954484454379778 C
  -0.0000110055693173    0.9584123120347863    0.0954262126959792 C
   0.7500000000000000    0.2074177412562055    0.0899282240169672 C
   0.4993342912057050    0.2926339026955529    0.0941368144029502 C
   0.7500000000000000    0.0414527309890513    0.0907138199996200 C
   0.7500000000000000    0.7115247288007244    0.1004197093369467 C
   0.7500000000000000    0.5357906026097724    0.1000729710399584 C
   0.5000110055693172    0.9584123120347863    0.0954262126959792 C
   0.5013677900547332    0.4561586399549890    0.1011433311559178 C
  -0.0013677900547330    0.4561586399549890    0.1011433311559178 C
  -0.0030057311269001    0.7924871253959519    0.1023693840648240 C
   0.5030057311269003    0.7924871253959519    0.1023693840648240 C
   0.2500000000000000    0.2075566807621312    0.0945583430926885 N
   0.2500000000000000    0.6249707756480428    0.1506870024365027 Hf
