Title
1.0
   8.5490480000000009    0.0000000000000000    0.0000000000000000
   0.0000000000000000    8.5490480000000009    0.0000000000000000
   0.0000000000000000    0.0000000000000000   20.0000000000000000
C N Cr
22 2 1
direct
   0.9107889354190652    0.2063377053266907    0.0954351571610609 C
   0.9080304013084910    0.5016671198893714    0.0952974335510511 C
   0.9108081830291066    0.7985873888032785    0.0954538332746834 C
   0.1962491428157674    0.0840156570889621    0.0954677448956891 C
   0.0752444939488157    0.2049971795728605    0.0954434083525238 C
   0.1976036579445761    0.9195813320369920    0.0954828453723177 C
   0.1569419406675737    0.6486383206546469    0.0953889920138979 C
   0.0780115395488419    0.5019317502692620    0.0953209858436747 C
   0.1583239803990899    0.3527929776972915    0.0953121621368725 C
   0.0752510296670766    0.7972436935323919    0.0954691988650372 C
   0.4931224743757766    0.0867771877501970    0.0953448687037671 C
   0.3440277857699672    0.1671202593903873    0.0953330629414267 C
   0.4928608469043092    0.9168015745712301    0.0953514786429426 C
   0.3461808370627695    0.8378649405695153    0.0954023307025157 C
   0.7884456154307099    0.0840043802634296    0.0954571773858198 C
   0.6398237587490464    0.1657166851137377    0.0953641232301748 C
   0.7898092458833965    0.9195646553814388    0.0954539412565286 C
   0.8277157698858519    0.6507986954097184    0.0953050604212601 C
   0.8290861123739448    0.3549483475427696    0.0953190944310100 C
   0.6419851855774052    0.8364705125666086    0.0953174296315679 C
   0.3232723739628541    0.6715406374402617    0.0953468627190960 C
   0.6627517763773958    0.3320249855078208    0.0952697295445109 C
   0.3196248219016676    0.3283813847022223    0.0951824722962728 N
   0.6664376829338317    0.6752016921603909    0.0951631872745742 N
   0.4930144080626623    0.5017809367585376    0.0950224193517022 Cr
