Title
1.0
   9.8694509999999998    0.0000000000000000    0.0000000000000000
   0.0000000000000000    8.5490480000000009    0.0000000000000000
   0.0000000000000000    0.0000000000000000   20.0000000000000000
C N Ag
26 5 1
direct
   0.0570168988870217    0.0920614958422712    0.0888389187994763 C
   0.9306087901184121    0.1759364626945291    0.0887578927681075 C
   0.0581468605390245    0.9237050562916299    0.0880909953622466 C
   0.9288686585348904    0.3426228257409289    0.0876474205740709 C
   0.0579140065898688    0.5900168446819500    0.0867155494424964 C
   0.9329398929958302    0.6721982959344097    0.0857762774770600 C
   0.0564892049111490    0.4228660133545154    0.0890063729489885 C
   0.9328804818822851    0.8398123988564055    0.0872249916788348 C
   0.3069465089069605    0.0868020782918797    0.0926885239173066 C
   0.1835357798342511    0.1736717655697348    0.0910688696137769 C
   0.3088211423938637    0.9208851130738265    0.0934296960823038 C
   0.1835466584344342    0.3398659006406064    0.0928945295291400 C
   0.3086979634935318    0.5896956460686144    0.1039045730164802 C
   0.1835957251586966    0.6705873930779449    0.0905898958582076 C
   0.1834089165427580    0.8382076130517612    0.0905513918223059 C
   0.5580326079017446    0.0842809870363912    0.0957181059951718 C
   0.4324419360514880    0.1677864151891801    0.0950173935748693 C
   0.4371680484099242    0.3347543691349064    0.0937551855406465 C
   0.4316941542436067    0.8355914606164452    0.1056505139576046 C
   0.8078012614090619    0.0896956163778266    0.0907324989560872 C
   0.6813788713264436    0.1701241158877508    0.0919813516856945 C
   0.8080655937557540    0.9243330295230885    0.0903271126105823 C
   0.6738338834419715    0.3375974069081680    0.0879548289244213 C
   0.8032996827534735    0.5962371361401364    0.0859482239716263 C
   0.6862802536131536    0.8348131518948930    0.0931230753186125 C
   0.4227646023292744    0.6767697385067277    0.1248968954960948 C
   0.5542913816796579    0.4124930645188599    0.0877910150584812 N
   0.6877929892622159    0.6785872413469631    0.0891630651320761 N
   0.5588388807783589    0.9172031827903355    0.1003768235720095 N
   0.3103672339952073    0.4218538154430304    0.0987187136755247 N
   0.7998624428304614    0.4264283094104359    0.0859607508038267 N
   0.5323076869952320    0.6027620561038538    0.2113735468358847 Ag
