Title
1.0
   9.8694509999999998    0.0000000000000000    0.0000000000000000
   0.0000000000000000    8.5490480000000009    0.0000000000000000
   0.0000000000000000    0.0000000000000000   20.0000000000000000
C N Ir
29 2 1
direct
   0.0559088361206292    0.0911050445579916    0.0850783722077922 C
   0.9314766335499418    0.1728119744644871    0.0875333592132864 C
   0.0571645144306266    0.9239918448130676    0.0849264281537547 C
   0.9312813969035202    0.3402299514283142    0.0911710652290320 C
   0.0568404962067632    0.5899336814813928    0.0866078048161526 C
   0.9326345323472888    0.6728421285383502    0.0912542782836953 C
   0.0571778232266433    0.4230507125378593    0.0875909427767055 C
   0.9321751532558774    0.8392024851532777    0.0882522162788372 C
   0.3055825076951121    0.0886327667174728    0.0881621492215556 C
   0.1818573283746867    0.1731631100787766    0.0865423204316198 C
   0.1829307482525666    0.3406562557766351    0.0881797903749656 C
   0.3041590163475715    0.5917862652202146    0.0939908510450526 C
   0.1808160398466486    0.6749079497449416    0.0864914937771479 C
   0.3076926822558100    0.4251981359371422    0.0951532606532099 C
   0.1805480754745643    0.8410133924179206    0.0859982549187739 C
   0.5560076169050502    0.0863490134767248    0.0948308838323584 C
   0.4305919803853172    0.1695024515352791    0.0935892371096924 C
   0.5540450270867989    0.9199428495791404    0.0971412266385998 C
   0.4308051341606212    0.3348619975646699    0.1026163669134076 C
   0.5561281919092513    0.4033335417597139    0.1210120054819807 C
   0.4266325367955750    0.8407484703452305    0.0958290587227504 C
   0.8067626689997587    0.0884589847238399    0.0890267194260019 C
   0.6815899239554424    0.1692408594438374    0.0954577886265340 C
   0.8070876180468279    0.9226498074424383    0.0903927444822496 C
   0.6828620270096084    0.3342953276160919    0.1063912934052084 C
   0.8103744765536465    0.5893892073397594    0.1046047878078665 C
   0.6950007554365639    0.6808526154994400    0.1200106130642713 C
   0.8078107914980471    0.4214985821860262    0.1021005542150901 C
   0.6831953345726324    0.8394722517528558    0.1015604642590702 C
   0.4194570819458964    0.6821631970191819    0.1038914402456526 N
   0.3050900093035365    0.9246455051576360    0.0884123763751668 N
   0.5479520411471832    0.5943156386902786    0.1698748520125633 Ir
