Title
1.0
   4.9440799999999996    0.0000000000000000    0.0000000000000000
   0.0000000000000000    8.5647549999999999    0.0000000000000000
   0.0000000000000000    0.0000000000000000   20.0000000000000000
C N Mo
13 2 1
direct
  -0.0014578001435330    0.2884371333236619    0.0916206572993538 C
   0.2500000000000000    0.0436318039275773    0.0840523225721430 C
   0.0020543100032222    0.7977469842383011    0.0986997139029550 C
  -0.0004380357278570    0.9603930217094239    0.0838568911560637 C
   0.7500000000000000    0.2065965544137228    0.0808079828922728 C
   0.5014578001435330    0.2884371333236619    0.0916206572993538 C
   0.7500000000000000    0.0410107935212673    0.0777020605730436 C
   0.7500000000000000    0.7082650993784778    0.1047577817265827 C
   0.4979456899967776    0.7977469842383011    0.0986997139029550 C
   0.7500000000000000    0.5377475688386595    0.1112938385814508 C
   0.5004380357278574    0.9603930217094239    0.0838568911560637 C
   0.5083706204848480    0.4441574486785675    0.1145195170793152 C
  -0.0083706204848482    0.4441574486785675    0.1145195170793152 C
   0.2500000000000000    0.7306988086726430    0.1138568863014076 N
   0.2500000000000000    0.2062402617806810    0.0876351021368657 N
   0.2500000000000000    0.5443399335670638    0.1750124663408677 Mo
