Title
1.0
   8.5490480000000009    0.0000000000000000    0.0000000000000000
   0.0000000000000000    8.5490480000000009    0.0000000000000000
   0.0000000000000000    0.0000000000000000   20.0000000000000000
C N W
20 4 1
direct
   0.9089783034023105    0.2068433569564521    0.0950027968671631 C
   0.9114883534519408    0.8005314897109853    0.0952908564465353 C
   0.1981735391296300    0.0834376911437480    0.0953012313546450 C
   0.0756561236986232    0.2034255514469979    0.0951487292806227 C
   0.1538540984698855    0.6489538187336670    0.0967261865686049 C
   0.0717733250201725    0.5011664810305717    0.0968825697619197 C
   0.1525152014609917    0.3541701176700690    0.0971757631728077 C
   0.0790994010747186    0.7978071309412313    0.0951485811267359 C
   0.4947169662935353    0.0863917520271107    0.0971437165870566 C
   0.3454434088671828    0.1645215464270662    0.0974139645245866 C
   0.4944326988517365    0.9173388065502825    0.0970244874827487 C
   0.3461513235341318    0.8356774521894085    0.0972229527669573 C
   0.7886393609553850    0.0873449260013709    0.0955092153268406 C
   0.6425938486375986    0.1671809587917811    0.0971630210442877 C
   0.7898127135032070    0.9188305631133316    0.0956463753055477 C
   0.8294134136660197    0.6520676958321840    0.0967803873764803 C
   0.8275851980599389    0.3544311801832759    0.0965725183150796 C
   0.6435956814530488    0.8370329837859182    0.0971915274097218 C
   0.3217200193499219    0.3332021009126279    0.1014535163337183 C
   0.3222967251234740    0.6705056393777824    0.1000869498029744 C
   0.9041039287088666    0.5027982487057117    0.0966665720436457 N
   0.6668264287886657    0.3319237398904956    0.0994742444833902 N
   0.6690458034992418    0.6736238367921472    0.0992829212575810 N
   0.1987388596668468    0.9163306249367170    0.0951266404548226 N
   0.4887572753329192    0.4992523068490867    0.1172692749054995 W
