Title
1.0
   9.8694509999999998    0.0000000000000000    0.0000000000000000
   0.0000000000000000    8.5490480000000009    0.0000000000000000
   0.0000000000000000    0.0000000000000000   20.0000000000000000
C N Rh
28 3 1
direct
   0.0564610542408256    0.0908673963754489    0.0879994012764344 C
   0.9309970032200081    0.1726706924975042    0.0893912360934976 C
   0.0555392232535597    0.9238818297922473    0.0884522463083754 C
   0.9305358114389198    0.3398012589168321    0.0928174273791020 C
   0.0563604699131248    0.5894582249263701    0.0904335580460614 C
   0.9309651632724896    0.6721731594584296    0.0939147702313605 C
   0.0572759739818477    0.4232636699907167    0.0908929364914111 C
   0.9303388221309411    0.8389237653703630    0.0912380338748391 C
   0.3054464430048095    0.0907236524884769    0.0891910890583648 C
   0.1820819235922708    0.1750809318583030    0.0884879375992959 C
   0.3051307646573695    0.9252548658839677    0.0896408621649067 C
   0.1845111704654086    0.3426705094092114    0.0893714278807071 C
   0.3080622802709747    0.5954997107489129    0.0906428285190540 C
   0.1812069714486714    0.6739415913199484    0.0894415366014550 C
   0.3118319035446580    0.4262283029391318    0.0902856892919420 C
   0.1803228551675873    0.8408660493403185    0.0887587768487404 C
   0.5556707090968368    0.0844284062944324    0.0933706850213701 C
   0.4322438663676546    0.1697072804426141    0.0915645283233240 C
   0.4366632974085219    0.3361523939249667    0.0930063779341723 C
   0.4278199045606159    0.8397710680206192    0.0932885256802742 C
   0.8070744996363270    0.0875931244208604    0.0900923645645372 C
   0.6809952499960082    0.1669596058286008    0.0932680637637726 C
   0.8051009021782738    0.9216340180684592    0.0915287039433903 C
   0.6793041079531872    0.3331800176883420    0.0975861043949906 C
   0.8063989563192989    0.5898451525650305    0.1039655425653759 C
   0.6885317434863341    0.6801570832889717    0.1193648490199577 C
   0.8048464221384736    0.4212498214044582    0.0994381404727871 C
   0.6803399817434272    0.8382093620767208    0.1001455329838371 C
   0.4276272568458199    0.6821055928906969    0.0938514911663602 N
   0.5589643426794481    0.4107594388803099    0.0990622704651595 N
   0.5540159391318622    0.9198893908121014    0.0955091247885047 N
   0.5469739868544499    0.5872986320766422    0.1696729372466736 Rh
