Title
1.0
   4.9440799999999996    0.0000000000000000    0.0000000000000000
   0.0000000000000000    8.5647549999999999    0.0000000000000000
   0.0000000000000000    0.0000000000000000   20.0000000000000000
C N Y
11 3 1
direct
   0.0007677195780941    0.2922594965509988    0.0943350041657209 C
   0.2500000000000000    0.0379694525345273    0.0949844187361915 C
  -0.0018959730716616    0.9556995587822176    0.0945586914455440 C
   0.7500000000000000    0.2057462858941088    0.0898457635447729 C
   0.4992322804219058    0.2922594965509988    0.0943350041657209 C
   0.7500000000000000    0.0409668219845173    0.0903038063666906 C
   0.7500000000000000    0.7161180278458139    0.0992456781425300 C
   0.7500000000000000    0.5412758048741788    0.0992426314452928 C
   0.5018959730716617    0.9556995587822176    0.0945586914455440 C
   0.5014840892299361    0.4553671040878746    0.1015717064602813 C
  -0.0014840892299358    0.4553671040878746    0.1015717064602813 C
  -0.0091512609792523    0.7946879313961228    0.1001612247409406 N
   0.5091512609792521    0.7946879313961228    0.1001612247409406 N
   0.2500000000000000    0.2062422612331464    0.0946371788894927 N
   0.2500000000000000    0.6273341639992829    0.1584672692500594 Y
