Title
1.0
   4.9440799999999996    0.0000000000000000    0.0000000000000000
   0.0000000000000000    8.5647549999999999    0.0000000000000000
   0.0000000000000000    0.0000000000000000   20.0000000000000000
C N Zr
14 1 1
direct
  -0.0006250413445374    0.2891432944369645    0.0912432647097139 C
   0.2500000000000000    0.0422883469934144    0.0840020601106367 C
  -0.0009082813221720    0.7962897061300974    0.0983689695563998 C
  -0.0011196960204930    0.9603542833477565    0.0845211862671373 C
   0.7500000000000000    0.2065439001099981    0.0804294485158959 C
   0.5006250413445373    0.2891432944369645    0.0912432647097139 C
   0.7500000000000000    0.0427914299707683    0.0793931498791079 C
   0.7500000000000000    0.7076625878811962    0.1045071401580289 C
   0.5009082813221719    0.7962897061300974    0.0983689695563998 C
   0.7500000000000000    0.5372308728591921    0.1097405322271076 C
   0.5011196960204928    0.9603542833477565    0.0845211862671373 C
   0.5048318996083874    0.4448520802926832    0.1118333894430639 C
  -0.0048318996083876    0.4448520802926832    0.1118333894430639 C
   0.2500000000000000    0.7258385393636617    0.1112829776340691 C
   0.2500000000000000    0.2060742544340070    0.0878939836588942 N
   0.2500000000000000    0.5502913399727569    0.1833290878636395 Zr
