Title
1.0
   4.9440799999999996    0.0000000000000000    0.0000000000000000
   0.0000000000000000    8.5647549999999999    0.0000000000000000
   0.0000000000000000    0.0000000000000000   20.0000000000000000
C N Sc
12 2 1
direct
   0.2500000000000000    0.2056898519247120    0.0965987502379173 C
  -0.0002524671834494    0.2922955138113325    0.0965832179743821 C
   0.2500000000000000    0.0371547173298733    0.0959802533654298 C
  -0.0028934593144295    0.9545484353005795    0.0955121482888192 C
   0.7500000000000000    0.2074845185560605    0.0933806834478021 C
   0.5002524671834493    0.2922955138113325    0.0965832179743821 C
   0.7500000000000000    0.0405524036236408    0.0929979673742080 C
   0.7500000000000000    0.7169660913937328    0.0986472745644500 C
   0.7500000000000000    0.5414264445734871    0.0997061054896112 C
   0.5028934593144295    0.9545484353005795    0.0955121482888192 C
   0.5028874426182154    0.4582502460195359    0.1014002055968895 C
  -0.0028874426182154    0.4582502460195359    0.1014002055968895 C
  -0.0107708436038951    0.7934910525477986    0.0990455636477773 N
   0.5107708436038954    0.7934910525477986    0.0990455636477773 N
   0.2500000000000000    0.6252364772400034    0.1455866945048487 Sc
