Title
1.0
   9.8694509999999998    0.0000000000000000    0.0000000000000000
   0.0000000000000000    8.5490480000000009    0.0000000000000000
   0.0000000000000000    0.0000000000000000   20.0000000000000000
C N Fe
25 5 1
direct
   0.0555295211915609    0.0900425379192124    0.0947807625073904 C
   0.9302718473169327    0.1724353659505041    0.0953109337517638 C
   0.0572143019131684    0.9240010905630398    0.0947390818638409 C
   0.9334806363788954    0.3400852574000597    0.0949790126843159 C
   0.0572910924994686    0.5897060573641432    0.0937290908144337 C
   0.9337916590256422    0.6741015443555496    0.0948964968037512 C
   0.0576549764076501    0.4231371328815883    0.0938114822775601 C
   0.9321962412589526    0.8408165860117072    0.0952776982097929 C
   0.3073071067084198    0.0882598011620986    0.0965582433342441 C
   0.1817944113834366    0.1717488112143194    0.0950836393102326 C
   0.1813223744560175    0.3385354229511441    0.0945987519868384 C
   0.3035811814199969    0.5897628259079923    0.0964572450563160 C
   0.1808817630349528    0.6739849311008029    0.0944610961345139 C
   0.3042811326070370    0.4216776937316806    0.0964753603951307 C
   0.1815370968607186    0.8402569821545701    0.0949855979391949 C
   0.4306828555564471    0.1762617786694236    0.0983408558377180 C
   0.5541405290880248    0.9184000390934655    0.0990655776760886 C
   0.4286349151734197    0.8347836226711998    0.0984781085164922 C
   0.8036301916135971    0.0891006088837897    0.0967459925977262 C
   0.6795637359397781    0.1779830333710207    0.0984566319988010 C
   0.8056093397872697    0.9218071775089767    0.0968003871823183 C
   0.6841642496697500    0.3437767629012826    0.0992970923630495 C
   0.8115657683595017    0.5920498710430567    0.0970743889023402 C
   0.8107821785874448    0.4235818359702311    0.0970374094405373 C
   0.6814669751028234    0.8326583685802672    0.0986984262997479 C
   0.5548373420297990    0.0922373157861061    0.0990237995007078 N
   0.4267074762306107    0.3388407649754327    0.0990748537985696 N
   0.6881114519818260    0.6694765223817345    0.0995362407542659 N
   0.4234138659445438    0.6740987579462268    0.0993142447448568 N
   0.3061105101295642    0.9229091220497280    0.0964854083001530 N
   0.5555782723427581    0.5043573774996577    0.1013910890173442 Fe
