Title
1.0
   4.9440799999999996    0.0000000000000000    0.0000000000000000
   0.0000000000000000   17.1295089999999988    0.0000000000000000
   0.0000000000000000    0.0000000000000000   20.0000000000000000
C N Ir
29 2 1
direct
   0.0001263495647008    0.1042833982580798    0.2797954256921571 C
   0.2498829811400995    0.1462434650850827    0.2823984684291184 C
   0.2498973541218742    0.2292173037107460    0.2906296394548774 C
   0.0043599668928953    0.3509118398644319    0.3105704643691848 C
  -0.0017387284457553    0.2703170803926369    0.2956759026804128 C
  -0.0039322288548956    0.6065449627021607    0.3185165353581554 C
   0.2499095179363918    0.7288763131553676    0.2987523810322884 C
   0.0002473336495531    0.8538814917819779    0.2847375943310479 C
   0.2499016537573382    0.8957443298927807    0.2820512892741495 C
   0.2498906731533410    0.9790573539611602    0.2785858400124000 C
   0.0003073549136973    0.7708955402437470    0.2925831953866619 C
   0.4996386257520324    0.1042839205337165    0.2797914934223031 C
   0.7498785403741256    0.1461545741410757    0.2819585844731813 C
   0.7498917082703175    0.2285229475524465    0.2892757748262139 C
   0.4999117979187460    0.0209458424000607    0.2780121489741352 C
   0.4954789337742170    0.3509111532964085    0.3105741629145135 C
   0.7499194862392449    0.4782881784145302    0.3220457355414826 C
   0.5015019541245956    0.2703209211829841    0.2956723984266508 C
   0.5037734070776757    0.6065408638638237    0.3185040102388867 C
   0.7499119079353387    0.7300477622082567    0.2966790568553206 C
   0.4995708907736124    0.8538875547095190    0.2847425133677275 C
   0.7499099969037151    0.8955769899134732    0.2817376357466371 C
   0.7498924878398376    0.9789703355043963    0.2783743879502201 C
   0.4994908688709175    0.7709008086463094    0.2925839461590004 C
   0.7499207950750375    0.6478894572089852    0.3085110042874599 C
   0.2499168624442274    0.6469060021943994    0.3131496345115819 C
  -0.0001335665991927    0.0209458675345808    0.2780115627430805 C
   0.5187771709274606    0.5250897278255091    0.3342517655733356 C
   0.9810440494681129    0.5250951206494153    0.3342434678082205 C
   0.2499132481692985    0.3867111816623001    0.3210808199408697 N
   0.7499175029710969    0.3940130798077089    0.3181586688406096 N
   0.2498441038603470    0.4805756317019204    0.3909094913780663 Ir
