Title
1.0
   8.5490480000000009    0.0000000000000000    0.0000000000000000
   0.0000000000000000    8.5490480000000009    0.0000000000000000
   0.0000000000000000    0.0000000000000000   20.0000000000000000
C N Y
20 4 1
direct
   0.9092018320982788    0.2043016513888302    0.0927424341940598 C
   0.9116347599789774    0.8024455293127559    0.0928395088350328 C
   0.1941266319699534    0.0828793197552714    0.0932286926317051 C
   0.0749213468384002    0.1995762411468534    0.0929932402794132 C
   0.1544301920181272    0.6499715048302576    0.0964740097494699 C
   0.0732539816405125    0.5010686429749245    0.0964500866403588 C
   0.1534863520969904    0.3530784709018378    0.0968420195759596 C
   0.0784061167293898    0.8005477387588333    0.0928075770198225 C
   0.4945105073667334    0.0876106050272042    0.0970225755865303 C
   0.3438241574342492    0.1646342899773603    0.0970721789870634 C
   0.4943312839855405    0.9169941036063985    0.0969392498182020 C
   0.3445883825001388    0.8355687293446591    0.0968809403675505 C
   0.7893294135518663    0.0870601222175808    0.0937680266966230 C
   0.6429740523108963    0.1679515409510657    0.0964069877661437 C
   0.7903863036492246    0.9192576140372376    0.0938950620755120 C
   0.8299878757499893    0.6528107558199314    0.0951883009943768 C
   0.8280856715293865    0.3531151830895741    0.0948831531768475 C
   0.6438187016471939    0.8369674240591177    0.0966416318847943 C
   0.3187999427658777    0.3298852218912366    0.1007831949136920 C
   0.3200223461915537    0.6737083003771575    0.1000861011435508 C
   0.9050705317942590    0.5028353156246724    0.0952664262828144 N
   0.6696233473002448    0.3315229968258646    0.0978603473318077 N
   0.6716250521882090    0.6738190796624119    0.0984607128340001 N
   0.1946483124725785    0.9164793018793038    0.0927620801269417 N
   0.4943249041914219    0.5007003165396801    0.1454104610877012 Y
