Title
1.0
   8.5490480000000009    0.0000000000000000    0.0000000000000000
   0.0000000000000000    8.5490480000000009    0.0000000000000000
   0.0000000000000000    0.0000000000000000   20.0000000000000000
C N V
21 3 1
direct
   0.9098313709080561    0.2053891863116545    0.0954516450970174 C
   0.9053114758590287    0.5030451135268832    0.0953039412965126 C
   0.9093642341232269    0.7985996533076630    0.0954645091358635 C
   0.1976817473331088    0.0835857266557891    0.0954764033138259 C
   0.0748105102789656    0.2064135103669815    0.0954571050191862 C
   0.1966541403073273    0.9186078183360984    0.0954807262573219 C
   0.1567235941623510    0.6512231690520408    0.0953365674793985 C
   0.0759953326802159    0.5026990576885386    0.0953247407050870 C
   0.1560414494325955    0.3556052045488759    0.0953680003229594 C
   0.0763457699937195    0.7976035737648285    0.0954644208522786 C
   0.4938853993717700    0.0847835862500572    0.0953574192003024 C
   0.3468211533009741    0.1648589710293723    0.0953918892012617 C
   0.4942447148835059    0.9140782023218592    0.0953521164376369 C
   0.3454421661499912    0.8350228321723694    0.0953559993244931 C
   0.7888004778056035    0.0851075537162235    0.0954654985731917 C
   0.6424064013374429    0.1655108045883447    0.0953188942521266 C
   0.7898252810056972    0.9181242105103160    0.0954713103778471 C
   0.8271479150525106    0.6512990725360918    0.0953113833523160 C
   0.8262751088616613    0.3542082062543889    0.0952964024078037 C
   0.6425016545797182    0.8358956786971710    0.0953247287800548 C
   0.3235475745537386    0.3323464627955329    0.0953126795379114 C
   0.3210963593379901    0.6739084689181706    0.0952049144544607 N
   0.6651487265661081    0.3298440456498835    0.0951637148631576 N
   0.6656854357746351    0.6744465266391342    0.0951809954744641 N
   0.4938240063400508    0.5025833643617449    0.0950689942834989 V
