Title
1.0
   9.8694509999999998    0.0000000000000000    0.0000000000000000
   0.0000000000000000    8.5490480000000009    0.0000000000000000
   0.0000000000000000    0.0000000000000000   20.0000000000000000
C N Ti
23 7 1
direct
   0.0563120567647315    0.0900183092143935    0.0956944340741101 C
   0.9319884444088029    0.1725559995816344    0.0990269926774197 C
   0.0575078757080311    0.9208852677327967    0.0961910288912560 C
   0.9330583329580356    0.3398492412582700    0.1001823200726723 C
   0.0570502242935161    0.5906707292980798    0.0970807399689332 C
   0.0569167688356618    0.4236871976135264    0.0967425611522302 C
   0.9323792638613931    0.8387788813043158    0.0994336734756321 C
   0.3081072546599957    0.0881000353689539    0.0899635933307597 C
   0.1817389861820915    0.1723310503928518    0.0921219846118865 C
   0.1816094682495735    0.3395707086925163    0.0923350786907755 C
   0.3068214246857005    0.5905021922339000    0.0866912936571755 C
   0.1807409840809118    0.6729383712128182    0.0935968059009190 C
   0.3075723544030001    0.4203237214804321    0.0858117938511542 C
   0.1822257835955250    0.8402023081976122    0.0933882723002120 C
   0.4303903964008279    0.1711487855473910    0.0884262678324534 C
   0.5562328231334638    0.9204615285783783    0.0959335001611358 C
   0.4297213708322306    0.8409925463142466    0.0888554782702659 C
   0.8053950964151962    0.0892771902058626    0.0997718892335729 C
   0.6829319728407799    0.1784714911895258    0.1015480755194633 C
   0.8065321522523319    0.9208040182610089    0.0999711650703259 C
   0.8089460461092647    0.5905005297921564    0.1057933909211226 C
   0.8091680398927527    0.4223245371315669    0.1053701113836987 C
   0.6820376935177251    0.8353871872457824    0.1021662631897442 C
   0.9329898514700274    0.6716612111431474    0.1004507476950812 N
   0.5583308627949034    0.0948622654320918    0.0950689798656637 N
   0.4274993696850089    0.3321765252379603    0.0826284990278693 N
   0.4254781253641116    0.6810169429975280    0.0832401705466034 N
   0.6862052134819454    0.3401648304599572    0.1097790094841458 N
   0.6891917633502903    0.6716535167312498    0.1109085315243751 N
   0.3052481151561292    0.9226452037979120    0.0903252811757464 N
   0.5328078846160409    0.5069126763521316    0.1224670664436547 Ti
