Title
1.0
   8.5490480000000009    0.0000000000000000    0.0000000000000000
   0.0000000000000000    8.5490480000000009    0.0000000000000000
   0.0000000000000000    0.0000000000000000   20.0000000000000000
C N Re
21 3 1
direct
   0.9093457337173168    0.2070249674948757    0.0954333715850297 C
   0.9048236660089809    0.5029403352752198    0.0953051318377904 C
   0.9101996329899195    0.7988619590505052    0.0954770500669880 C
   0.1986598166754809    0.0844310303160189    0.0954865759907508 C
   0.0756558934962431    0.2074185385191552    0.0954539804749509 C
   0.1982835003933584    0.9181210796193076    0.0954840815010977 C
   0.1560979715033257    0.6503246215963742    0.0953378229474634 C
   0.0755319383451047    0.5022866915325541    0.0953278593174701 C
   0.1551891838524623    0.3559926601175746    0.0953691365560230 C
   0.0771906041838403    0.7974419458355529    0.0954694314605657 C
   0.4934317487296542    0.0843479905773442    0.0953600319827180 C
   0.3471718068421302    0.1640262578243655    0.0953975780185740 C
   0.4941195688642268    0.9136284662128660    0.0953550151626487 C
   0.3456186444249271    0.8357067047531260    0.0953550232473788 C
   0.7886310373898991    0.0859524874714079    0.0954589651263743 C
   0.6414960375065264    0.1648584094720867    0.0953150057723139 C
   0.7900786908340683    0.9189767960963684    0.0954756688243862 C
   0.8281756996400108    0.6518121909046508    0.0953260009043826 C
   0.8269619804968440    0.3543818965694559    0.0952893618224298 C
   0.6429930662575968    0.8369664511144169    0.0953296635677093 C
   0.3248817571406540    0.3337000961782691    0.0952943813756845 C
   0.3204384465263936    0.6719807910053140    0.0952031879683457 N
   0.6632302649239978    0.3291363898756652    0.0951629494730339 N
   0.6668883274197501    0.6756772967929467    0.0951793930658209 N
   0.4903169818372803    0.4987939457945927    0.0950583319500474 Re
