Title
1.0
   9.8694509999999998    0.0000000000000000    0.0000000000000000
   0.0000000000000000    8.5490480000000009    0.0000000000000000
   0.0000000000000000    0.0000000000000000   20.0000000000000000
C N Mn
29 2 1
direct
   0.0563857160135156    0.0914004406055199    0.0843347174884999 C
   0.9309954285709062    0.1733863476241784    0.0863549679189530 C
   0.0555688784247312    0.9241181257797318    0.0844047559985633 C
   0.9303430382557472    0.3398638837386350    0.0896956687433127 C
   0.0561508057681051    0.5892244468305099    0.0861025902822757 C
   0.9320630072970627    0.6726241056111693    0.0900174628922530 C
   0.0567610512445927    0.4230162387755542    0.0876686366525998 C
   0.9314490755177727    0.8394883465398362    0.0881986095491504 C
   0.3056119098482166    0.0904082600312353    0.0871140274643364 C
   0.1814992615832528    0.1748779020339675    0.0856609094768798 C
   0.3043441227366034    0.9245449385723540    0.0882678288224609 C
   0.1834777813605724    0.3419009174726197    0.0880740229089114 C
   0.3051953858277416    0.5945036958954307    0.0945320274299879 C
   0.1799151077287709    0.6740565971826069    0.0864289321915387 C
   0.3100352510595333    0.4255514835786593    0.0933619847769140 C
   0.1797729984651327    0.8408476677946325    0.0855635171879987 C
   0.5556305888371731    0.0849754220053222    0.0946143756725205 C
   0.4313666016469087    0.1702640567135141    0.0911835147297906 C
   0.5549350841503897    0.9195669282168044    0.1008109713044424 C
   0.4349926085302067    0.3359815352219902    0.0958912410958484 C
   0.4261819381341721    0.8395974142404037    0.0984561239526808 C
   0.8068236678573859    0.0885554019472058    0.0886633615961761 C
   0.6813671582705004    0.1686719258618843    0.0927434900996573 C
   0.8066261136139186    0.9225087502997955    0.0913960892213799 C
   0.6798112263430092    0.3338764969344611    0.0985238443726384 C
   0.8089692322687735    0.5898666345936067    0.1028792335931207 C
   0.6957155036081960    0.6805863998413871    0.1213090199116031 C
   0.8051562088076369    0.4218467639412386    0.0982068986480776 C
   0.6837002605912327    0.8398314573957221    0.1043093627498435 C
   0.4196867770447147    0.6811194243980058    0.1063933443276132 N
   0.5575368005913294    0.4082184506866773    0.1054988424571779 N
   0.5515704100022021    0.5849655396353498    0.1690146264828287 Mn
