Title
1.0
   9.8694509999999998    0.0000000000000000    0.0000000000000000
   0.0000000000000000    8.5490480000000009    0.0000000000000000
   0.0000000000000000    0.0000000000000000   20.0000000000000000
C N Pt
24 6 1
direct
   0.0556618669354761    0.0896526254065625    0.0937869673413789 C
   0.9312405578126888    0.1720626406766209    0.0941981222028166 C
   0.0572377943771486    0.9221516667089030    0.0941592842932518 C
   0.9350462994127708    0.3391081895572920    0.0935143956844510 C
   0.0559538096619644    0.5910090912363480    0.0926261529207759 C
   0.0567891432269521    0.4238067642312660    0.0921139099675461 C
   0.9324403772799842    0.8397323687532571    0.0948391522935473 C
   0.3067886046990337    0.0887421616801144    0.0963436723751178 C
   0.1805997528322082    0.1715331893141327    0.0941280894111501 C
   0.1796039855724861    0.3386763737085546    0.0934130968173537 C
   0.3000726922387026    0.5900271099828047    0.0966945481781544 C
   0.1781909005038050    0.6744575521660732    0.0939810437895425 C
   0.3018148497853997    0.4210199300335702    0.0965467328119067 C
   0.1810807596523685    0.8411429796645058    0.0946879954379613 C
   0.4295689357958979    0.1745725107863429    0.0990699951814178 C
   0.5545938511685983    0.9181120708399777    0.0999674154561475 C
   0.4268493737573838    0.8357012924682273    0.0993437822256830 C
   0.8051055854805709    0.0884052119762116    0.0965151945053641 C
   0.6816260298354020    0.1762941333033979    0.0990543774084094 C
   0.8067906872533596    0.9210621743818702    0.0967929125537654 C
   0.6899233330982862    0.3412251471709430    0.1003025051546363 C
   0.8144038353980477    0.5931884501886920    0.0970616261096244 C
   0.8142264452517948    0.4232318822785922    0.0966922456727790 C
   0.6818454688404583    0.8355133394106923    0.0994041817009694 C
   0.9345392196999764    0.6740600223581998    0.0940928727611866 N
   0.5549797751633572    0.0924188213772173    0.1000771188505622 N
   0.4218858175073524    0.3366227824701519    0.1004812757928346 N
   0.6949127814397509    0.6722812624443810    0.1008097911283110 N
   0.4177430024104808    0.6775149795527581    0.1008160790836239 N
   0.3049073810378904    0.9231417729652586    0.0963966931800050 N
   0.5567120828704130    0.5044065029070944    0.1030537697097625 Pt
