Title
1.0
   4.9440799999999996    0.0000000000000000    0.0000000000000000
   0.0000000000000000    8.5647549999999999    0.0000000000000000
   0.0000000000000000    0.0000000000000000   20.0000000000000000
C Hf
14 1
direct
   0.2500000000000000    0.2070505249209997    0.0956737767101356 C
  -0.0007915181653568    0.2921452319276734    0.0954067860297166 C
   0.2500000000000000    0.0425840944654227    0.0957231433369130 C
  -0.0007734936445463    0.9574639373183936    0.0955263002749013 C
   0.7500000000000000    0.2081792064410312    0.0914885326368783 C
   0.5007915181653569    0.2921452319276734    0.0954067860297166 C
   0.7500000000000000    0.0414209877576571    0.0915731112360817 C
   0.7500000000000000    0.7119345390887170    0.0997563846425036 C
   0.7500000000000000    0.5376381627987977    0.0996621795592532 C
   0.5007734936445464    0.9574639373183936    0.0955263002749013 C
   0.5051125087811272    0.4566051091349768    0.1008354496044990 C
  -0.0051125087811272    0.4566051091349768    0.1008354496044990 C
  -0.0050437429802100    0.7929693222811742    0.1009958585958022 C
   0.5050437429802102    0.7929693222811742    0.1009958585958022 C
   0.2500000000000000    0.6245062832029405    0.1485740828683995 Hf
