Title
1.0
   8.5490480000000009    0.0000000000000000    0.0000000000000000
   0.0000000000000000    8.5490480000000009    0.0000000000000000
   0.0000000000000000    0.0000000000000000   20.0000000000000000
C N Zn
22 2 1
direct
   0.9105108416335743    0.2069851146826192    0.0979687992403056 C
   0.9126754828147174    0.7996276439465916    0.0978144578140701 C
   0.1976330423971295    0.0828243396187981    0.0980126315584040 C
   0.0746053702262508    0.2020309234183817    0.0981194247855123 C
   0.1575259123186648    0.6478407345065101    0.0960723394896056 C
   0.0754588255985535    0.5018536199453292    0.0976631859574251 C
   0.1566135281754950    0.3560229333041632    0.0992228330105762 C
   0.0784343532430115    0.7988164084581050    0.0976026005784379 C
   0.4934896533847509    0.0861570305857981    0.0974066173744614 C
   0.3450987542149708    0.1648953901717662    0.0989011584994872 C
   0.4928656022100706    0.9173628113938997    0.0978762927127507 C
   0.3464298987503907    0.8347223378047178    0.0961723748160093 C
   0.7871574853152785    0.0853015683168042    0.0976605644565767 C
   0.6378846691089813    0.1682937544275447    0.0960148629253292 C
   0.7884861427812268    0.9198077563025829    0.0977029634652021 C
   0.8306926331739753    0.6478371421794797    0.0991936398655439 C
   0.8283898440449482    0.3588514971167741    0.0965716374056426 C
   0.6384129079678492    0.8351390194021981    0.0992869170563018 C
   0.3198905675903720    0.3317936201969586    0.1028858406170380 C
   0.3220085860474480    0.6713597950299455    0.0923716451285926 C
   0.6648988208723174    0.3359112270879773    0.0919341968117594 C
   0.6658282510449214    0.6696634987793126    0.1039855706036979 C
   0.9102615798856873    0.5031950143083215    0.0978480109791789 N
   0.1978851239319093    0.9161378905733089    0.0976218328126775 N
   0.4922741232674914    0.5023589284421184    0.0977946020353938 Zn
