Title
1.0
   9.8694509999999998    0.0000000000000000    0.0000000000000000
   0.0000000000000000    8.5490480000000009    0.0000000000000000
   0.0000000000000000    0.0000000000000000   20.0000000000000000
C N Zr
27 4 1
direct
   0.0555165726293003    0.0913621712775277    0.0859893631976211 C
   0.9295786115636168    0.1750957261429771    0.0880825716541491 C
   0.0564115253536760    0.9228791258419448    0.0836934205942348 C
   0.9293396708321269    0.3414612979526558    0.0911179312459972 C
   0.0562376924454835    0.5891719641726068    0.0858118336261917 C
   0.9319702387689798    0.6715254695920204    0.0849026609800779 C
   0.0553281681899405    0.4225563798396866    0.0901515634173626 C
   0.9313724292836070    0.8396408221546224    0.0841004290109360 C
   0.3050390857061702    0.0881835238751715    0.0884535838525547 C
   0.1813773969341487    0.1731597197661337    0.0889676194674242 C
   0.3070218282774244    0.9221146289586383    0.0877356525220486 C
   0.1805746442874989    0.3392226140054643    0.0928402207254191 C
   0.3048542609205229    0.5879938967091850    0.0986587581607532 C
   0.1809245270226696    0.6698643594899157    0.0871810206929140 C
   0.1820186543208645    0.8379054376920432    0.0853225553201166 C
   0.5560772784000471    0.0869554688848811    0.0950875865817715 C
   0.4300063119774805    0.1692025528758720    0.0942995628573954 C
   0.4299758799315445    0.3348236751334073    0.1035710518251834 C
   0.4296846304933373    0.8372601728872962    0.0973989865012473 C
   0.8064072257542926    0.0903675491375211    0.0875321865936608 C
   0.6809239823213252    0.1717878517476173    0.0932845666195032 C
   0.8065098993618279    0.9249062245479489    0.0867606831699832 C
   0.6783389503556009    0.3369655247526895    0.1019204508514978 C
   0.8071289052926616    0.5923949199590260    0.0931783587946854 C
   0.6848812771765582    0.8396829330350107    0.0948515653584752 C
   0.4223588532507306    0.6751298215670682    0.1130749346190093 C
   0.5534676270708185    0.4107582777337827    0.1193448792652592 C
   0.6921017125285318    0.6794346372770912    0.1041032180997095 N
   0.5570186071183966    0.9180070520682188    0.0967828275363121 N
   0.3055401968721940    0.4204919649851658    0.0999104440833644 N
   0.8027966808804320    0.4251432304295234    0.0963828117200327 N
   0.5688556746781982    0.6047970055072873    0.1851817010551246 Zr
