Title
1.0
   4.9440799999999996    0.0000000000000000    0.0000000000000000
   0.0000000000000000    8.5647549999999999    0.0000000000000000
   0.0000000000000000    0.0000000000000000   20.0000000000000000
C Co
15 1
direct
   0.2500000000000000    0.2070870028345503    0.0940938776365862 C
  -0.0013287554807876    0.2894446707690115    0.0973089087124576 C
   0.2500000000000000    0.0420873280931319    0.0899401115540951 C
  -0.0013117084656304    0.7937278785242494    0.0981668070645532 C
  -0.0006588470503486    0.9592630826753871    0.0901264580538057 C
   0.7500000000000000    0.2069653170320312    0.0911360300489069 C
   0.5013287554807876    0.2894446707690115    0.0973089087124576 C
   0.7500000000000000    0.0412957480056712    0.0878921012715701 C
   0.7500000000000000    0.7100030714745165    0.1011417541706952 C
   0.5013117084656307    0.7937278785242494    0.0981668070645532 C
   0.7500000000000000    0.5422160470601152    0.1050792689071790 C
   0.5006588470503488    0.9592630826753871    0.0901264580538057 C
   0.5119057194646960    0.4518325676799683    0.1093670492873924 C
  -0.0119057194646959    0.4518325676799683    0.1093670492873924 C
   0.2500000000000000    0.7195643660106767    0.1086383350520957 C
   0.2500000000000000    0.5422447201920754    0.1546520751224619 Co
