Title
1.0
   4.9440799999999996    0.0000000000000000    0.0000000000000000
   0.0000000000000000    8.5647549999999999    0.0000000000000000
   0.0000000000000000    0.0000000000000000   20.0000000000000000
C N Pd
11 3 1
direct
   0.0003733616981446    0.2918748366895861    0.1006672208177853 C
   0.2502291084683725    0.0420275539378367    0.1004394897233481 C
  -0.0037410876972019    0.9552876118262734    0.1006718471029047 C
   0.7525545375635725    0.2070491211452841    0.1005257905711064 C
   0.5042432794051794    0.2949892951979965    0.1003205846850597 C
   0.7489907703381069    0.0412365207306455    0.1005000733928679 C
   0.7473613267537795    0.7139223445202617    0.1006841243625702 C
   0.7513962045487479    0.5342845760828223    0.1006960975822405 C
   0.4995146048438944    0.9595026054353657    0.1002992445868617 C
   0.5081150417866003    0.7939487354923638    0.1000668098859859 C
  -0.0076231622460741    0.4547944346932363    0.1010683964875521 C
   0.5115023855301201    0.4527974807892071    0.1001305830406230 N
  -0.0129392991269427    0.7948351606867228    0.1010291359352143 N
   0.2503179486243589    0.2093206756554719    0.1003985924232575 N
   0.2497049795093419    0.6258100471169283    0.1004820094026263 Pd
