Title
1.0
   8.5490480000000009    0.0000000000000000    0.0000000000000000
   0.0000000000000000    8.5490480000000009    0.0000000000000000
   0.0000000000000000    0.0000000000000000   20.0000000000000000
C N Ni
19 5 1
direct
   0.9081873024114738    0.2063368776209315    0.0975333037964914 C
   0.9111360528358839    0.8001830342361183    0.0975705431478869 C
   0.1993912837081469    0.0840449543545102    0.0978616149070574 C
   0.0771024195165858    0.2022942689830516    0.0977018320540327 C
   0.1573569864630598    0.6476727605077675    0.0977615018317794 C
   0.0724438724283394    0.5004135429941321    0.0977616565257695 C
   0.1563026970409845    0.3556049462035893    0.0977255099187460 C
   0.0805163157463462    0.7982491535785974    0.0977276279899657 C
   0.3491184481044655    0.1692932400153395    0.0978600344593631 C
   0.4948835761788613    0.9179878850315906    0.0978228668190405 C
   0.3486551051888933    0.8329241545256673    0.0978350055175679 C
   0.7880146893327821    0.0867896735831048    0.0974759587968780 C
   0.6409395996531085    0.1686306583272769    0.0977046370339754 C
   0.7905072214623041    0.9184097013663685    0.0974928194540841 C
   0.8249600666781958    0.6512414749413649    0.0977619082528738 C
   0.8226438988344703    0.3540825034225336    0.0977052921209822 C
   0.6425669657221988    0.8365335653379626    0.0977438058556683 C
   0.3266650169218411    0.3376565915709377    0.0977452142499969 C
   0.3259209486832698    0.6660899716734916    0.0977491498185561 C
   0.4957423626941774    0.0880219960178620    0.0978850296261297 N
   0.9014690871045498    0.5020650786988997    0.0978300915884864 N
   0.6602980251562154    0.3318417014125148    0.0978611977773116 N
   0.6644137509344760    0.6723745958419179    0.0979208613305822 N
   0.1984745863422006    0.9151432957989396    0.0978839684068940 N
   0.4877017208571636    0.5009043739555502    0.0977835687198539 Ni
