Title
1.0
   4.9440799999999996    0.0000000000000000    0.0000000000000000
   0.0000000000000000   17.1295089999999988    0.0000000000000000
   0.0000000000000000    0.0000000000000000   20.0000000000000000
C N Rh
30 1 1
direct
  -0.0001660593306692    0.1040020078786439    0.2804192684207398 C
   0.2499534941784444    0.1456439792996781    0.2840905573195676 C
   0.2499367370512303    0.2279860916694680    0.2943920895490756 C
   0.0006705339302310    0.3504304645344918    0.3159520834423513 C
  -0.0006468694350494    0.2690191935371660    0.3002936648612505 C
  -0.0019258817253711    0.6074793372753041    0.3167691396743374 C
   0.2499243004979355    0.7295073748340741    0.2957222076335080 C
   0.0000737666937726    0.8540086916395330    0.2811125368721780 C
   0.2499524918082630    0.8958911653259636    0.2786166140382696 C
   0.2499233450447238    0.9789235545407630    0.2762638780126218 C
   0.0000044465621833    0.7713158765739795    0.2891908406257334 C
   0.5000657170864644    0.1040017530942691    0.2804155743328647 C
   0.7499433575864803    0.1455501078477378    0.2836789736224624 C
   0.7499282671960530    0.2282417429287694    0.2933535728951938 C
   0.5000779115240636    0.0208073310333482    0.2764986036563185 C
   0.4990889752969283    0.3504295212984959    0.3159554661658872 C
   0.7498551304274111    0.3938432134043251    0.3225679475572100 C
   0.7497800151149269    0.4799198744651154    0.3282810260697401 C
   0.5004954479899482    0.2690218388112255    0.3002926737524356 C
   0.5016773604329987    0.6074768502212424    0.3168315197635413 C
   0.7499012954852955    0.7303905018914485    0.2938021004051826 C
   0.4998120131282786    0.8540058759368591    0.2811121027707769 C
   0.7499359416401291    0.8955897772978022    0.2782703596259737 C
   0.7499154450181317    0.9790556311223190    0.2760219903363133 C
   0.4998385523052542    0.7713172618992565    0.2891936552674533 C
   0.7498559224096780    0.6483726864425871    0.3067946924487539 C
   0.2499087453053929    0.6485056776650259    0.3104131797594394 C
  -0.0002327097158833    0.0208069094033328    0.2765012368326563 C
   0.5171301389899603    0.5272665327156939    0.3337522508004427 C
   0.9825012033238836    0.5272620655244652    0.3336543991680024 C
   0.2498804731681002    0.3854225312132131    0.3264910588293742 N
   0.2497634910108168    0.4770555786743952    0.3858597354902970 Rh
