Title
1.0
   4.9440799999999996    0.0000000000000000    0.0000000000000000
   0.0000000000000000   17.1295089999999988    0.0000000000000000
   0.0000000000000000    0.0000000000000000   20.0000000000000000
C N Co
27 3 1
direct
   0.0006804212809023    0.1068774380518229    0.2978317642998662 C
   0.2505913269793907    0.1497456724476739    0.2985569966125498 C
   0.2509717857729251    0.2345436962377637    0.3000741426862963 C
  -0.0015691014836287    0.2752712933696009    0.3007843072025565 C
  -0.0015551999824207    0.5985653384081508    0.3012173956845885 C
   0.2484339237982016    0.7257746883106543    0.2991495509242994 C
  -0.0004440448804198    0.8530297648269514    0.2973091341153382 C
   0.2495931645264617    0.8954243348881693    0.2969376155756480 C
   0.2497561726818431    0.9797742807504448    0.2967107036308461 C
  -0.0006795031380098    0.7686939656300960    0.2984392352824013 C
   0.4995564194498677    0.1067023473237961    0.2978194073964885 C
   0.7498525510801971    0.1486226093680479    0.2984633434552021 C
   0.7498767031602853    0.2328958194595538    0.2999460481908726 C
   0.4995190991521984    0.0222682614328995    0.2969011777888005 C
   0.7553071978272864    0.3932843887045641    0.3023806053209999 C
   0.7543574583921731    0.4796835702976178    0.3025450996689208 C
   0.5026578072473281    0.2763680858174365    0.3007436982744294 C
   0.4988170346711832    0.5997522870340084    0.3012594360489051 C
   0.7499046094196343    0.7263130779080802    0.2990963320974923 C
   0.4993234848645286    0.8528798347730111    0.2973232107985201 C
   0.7494399582843155    0.8953646957907594    0.2969303587872215 C
   0.7497725037488377    0.9799400216526567    0.2967018408800133 C
   0.4991993765842305    0.7683307630446434    0.2984586597237781 C
   0.7488813013394321    0.6417384218707243    0.3005162492853856 C
   0.2488299997872963    0.6415562336953020    0.3005812198401591 C
   0.0001935379623572    0.0223377243032683    0.2969014015297904 C
   0.5059910229971086    0.5161065871147156    0.3023139402824893 C
   0.9961812424317877    0.5174139961390436    0.3022391303959712 N
   0.5126851778421447    0.3577780425781242    0.3019999869573055 N
  -0.0081793320406087    0.3561186350431515    0.3021222099376328 N
   0.2520609002431738    0.4381861237272632    0.3028057973251823 Co
