Title
1.0
   9.8694509999999998    0.0000000000000000    0.0000000000000000
   0.0000000000000000    8.5490480000000009    0.0000000000000000
   0.0000000000000000    0.0000000000000000   20.0000000000000000
C N V
25 6 1
direct
   0.0559158608348300    0.0913791750307835    0.0870446760019443 C
   0.9312259723012971    0.1747371623575187    0.0877778627589016 C
   0.0572912293801103    0.9232200361511661    0.0873614431262263 C
   0.9302848751792211    0.3415734565715218    0.0900961484492740 C
   0.0566088585106586    0.5914261948218081    0.0884012388067949 C
   0.0561706630845523    0.4237681781239931    0.0893851089277113 C
   0.9328049378665775    0.8402078563898943    0.0892064961325583 C
   0.3061166695844529    0.0889178048818404    0.0891467466973965 C
   0.1822390976535146    0.1737553975573770    0.0884584269763723 C
   0.1824393123959811    0.3409783942175444    0.0903134756441325 C
   0.3040091424479890    0.5914901503285210    0.0980658992766664 C
   0.1799276082909335    0.6743030710626865    0.0897813732593311 C
   0.3103540240356241    0.4229497306038543    0.0960792171713738 C
   0.1815590957560250    0.8422262756659307    0.0888318482474727 C
   0.5561497272084797    0.0853694117688295    0.0931905715391942 C
   0.5549857093648937    0.9177732481365811    0.0974609873549658 C
   0.4321731798246798    0.3321336850023541    0.0991699564284069 C
   0.4262303992842373    0.8395817810886684    0.0993949349398577 C
   0.8066085644638782    0.0887487431673594    0.0880348210293457 C
   0.6801686135680554    0.1692619517426435    0.0910527802903369 C
   0.8084020051428279    0.9227956129304412    0.0901916727495446 C
   0.6798689475965058    0.3357074637670436    0.0982821619205340 C
   0.8097342811455570    0.5942079626712862    0.0992859754344370 C
   0.8031684956267079    0.4256693565777420    0.0963363248321894 C
   0.6842422839210203    0.8397183051632389    0.0988893647494905 C
   0.4161083514582078    0.6839890081347719    0.1119185334495634 N
   0.5545448665024897    0.4012294303759534    0.1115923351601972 N
   0.6969444237997821    0.6810395097811158    0.1125680966036905 N
   0.3055042491500612    0.9253909914243289    0.0899539182591710 N
   0.4299356164147590    0.1665894595596163    0.0924710361597351 N
   0.9327648541987601    0.6725722620011620    0.0900718263492798 N
   0.5551570840073354    0.5875349329424253    0.1658597412739205 V
