Title
1.0
   8.5490480000000009    0.0000000000000000    0.0000000000000000
   0.0000000000000000    8.5490480000000009    0.0000000000000000
   0.0000000000000000    0.0000000000000000   20.0000000000000000
C N Rh
19 5 1
direct
   0.9100254617241925    0.2063074571597223    0.0976133397483132 C
   0.9108432382193704    0.8010391193932105    0.0973860133911608 C
   0.1996912122252002    0.0845927204245351    0.0977495337052950 C
   0.0756781817269483    0.2047664847578119    0.0976957187485532 C
   0.1553322206022741    0.6521766292203452    0.0978362536350355 C
   0.0742153862650616    0.5022246579044759    0.0977837693188925 C
   0.1554302682932237    0.3569440436925961    0.0978233913734215 C
   0.0784256569304440    0.7999371902972937    0.0976060726901085 C
   0.4948730138678246    0.0846967321659675    0.0977189587667044 C
   0.3469809725874290    0.1645144865129077    0.0978277041292853 C
   0.4939132130594170    0.9128046375261497    0.0977413379973714 C
   0.3443268707779237    0.8319966370878304    0.0979188693301630 C
   0.7891444832495257    0.0862705357785352    0.0975126102400444 C
   0.6424329771179808    0.1665604035545832    0.0977133453209025 C
   0.7896741702284907    0.9185407268685584    0.0973976473235688 C
   0.8282048549419042    0.6519825268098967    0.0976135033503497 C
   0.8246551663246592    0.3553711137532072    0.0977711322447008 C
   0.6428205208514871    0.8336886993581906    0.0976711170284545 C
   0.3252379185018596    0.3365656694072786    0.0978894298311388 C
   0.9041364563412023    0.5036319271350818    0.0977780217105936 N
   0.3177254278168898    0.6735300529334318    0.0980491091222830 N
   0.6654662624951554    0.3319569641247720    0.0979108988433523 N
   0.6688264825522164    0.6718406787494171    0.0978625735834769 N
   0.1979347037312101    0.9161773376940430    0.0977906584377808 N
   0.4894168795681017    0.4966725676901778    0.0980439901290225 Rh
