Title
1.0
   9.8694509999999998    0.0000000000000000    0.0000000000000000
   0.0000000000000000    8.5490480000000009    0.0000000000000000
   0.0000000000000000    0.0000000000000000   20.0000000000000000
C N Tc
24 6 1
direct
   0.0562408021015782    0.0901553528788903    0.0917147775487768 C
   0.9317515590370561    0.1722071550275576    0.0927383830300291 C
   0.0571803304500156    0.9224710291083790    0.0916486610907028 C
   0.9333160862424059    0.3394146259535880    0.0918228602472524 C
   0.0566025431387059    0.5894642947511952    0.0892818414846561 C
   0.9331366555496615    0.6722879185436464    0.0915513070072674 C
   0.0567983824816895    0.4229418365888605    0.0894053853344579 C
   0.9321792750338628    0.8397038356284240    0.0925317511868056 C
   0.3069531771564461    0.0875738923017092    0.0948165367672579 C
   0.1813042005232506    0.1716065059524136    0.0922286160819901 C
   0.1802109729103650    0.3385902826084720    0.0912321347751905 C
   0.3025499217816304    0.5905400962581774    0.0963441766258740 C
   0.1802328959978470    0.6735487728215084    0.0912113654654106 C
   0.3029931278062415    0.4212900270353481    0.0957240515447329 C
   0.1808448486229286    0.8402534961861908    0.0922235456858578 C
   0.4286345600565959    0.1733535344296870    0.0996186273702866 C
   0.5547992541599392    0.9205528461970802    0.1019738467797341 C
   0.4281108975286489    0.8394379692027593    0.1010046583872823 C
   0.8058189139173344    0.0889524622023310    0.0954583670421698 C
   0.6833443344801051    0.1757919622996509    0.1002322805044508 C
   0.8068583933634194    0.9224096711478939    0.0955723286023448 C
   0.8102482087928032    0.5904482516299127    0.0964934322050385 C
   0.8103775189206999    0.4208337410809975    0.0967490079848731 C
   0.6830277719704445    0.8374631361501276    0.1008234445181980 C
   0.5569943690364519    0.0949225857758650    0.1015397679510643 N
   0.4222002973509489    0.3336135997295235    0.1029689710647632 N
   0.4203625807109646    0.6797135679766736    0.1058014597180781 N
   0.6901742014794473    0.3353096318344147    0.1043026763573980 N
   0.6905768514196462    0.6757840255964348    0.1039983821767134 N
   0.3048014892215261    0.9230225093190682    0.0945638461711041 N
   0.5545115787573408    0.5072163837832201    0.1153885092902966 Tc
