Title
1.0
   4.9440799999999996    0.0000000000000000    0.0000000000000000
   0.0000000000000000    8.5647549999999999    0.0000000000000000
   0.0000000000000000    0.0000000000000000   20.0000000000000000
C N Tc
10 4 1
direct
  -0.0035771116231928    0.2910033228080485    0.0948196608228019 C
   0.2518985173966049    0.0377856215318735    0.0985019123488362 C
  -0.0012097186649668    0.9590791010566335    0.0922795442399390 C
   0.7457751704371591    0.2080175367924905    0.0965573255781093 C
   0.4986140346122290    0.2959961012101370    0.1033700194497586 C
   0.7488239026865072    0.0403292824409010    0.0960930600761907 C
   0.7622386816959483    0.7143393022546035    0.0968815576752088 C
   0.7570004619012151    0.5378191222992174    0.0981978073121896 C
   0.5048237382659666    0.9534724436265247    0.1026824133873351 C
   0.5081182739372776    0.4620637383512632    0.1141780224365013 C
  -0.0064492286686685    0.4499056854648754    0.0905524824802655 N
  -0.0073776708418589    0.7976212994184818    0.0826323757799536 N
   0.5230316331689029    0.7896918645774337    0.1144354917565931 N
   0.2497942725507755    0.2099487192071858    0.0996505058317305 N
   0.2184950431461012    0.6246078589603321    0.1271478208245901 Tc
