Title
1.0
   4.9440799999999996    0.0000000000000000    0.0000000000000000
   0.0000000000000000    8.5647549999999999    0.0000000000000000
   0.0000000000000000    0.0000000000000000   20.0000000000000000
C N Y
12 2 1
direct
   0.2474457162626932    0.2090184412682878    0.0967483334028668 C
  -0.0080844891331721    0.2941063997387565    0.0966945769070158 C
   0.2525217160404381    0.0405484098886748    0.0967595774589617 C
   0.0041662574670386    0.9560731954428646    0.0939521264342391 C
   0.7462558934970889    0.2082527699973584    0.0904947558451465 C
   0.4957875271884737    0.2935115038203952    0.0938198741992696 C
   0.7537271162077085    0.0413124919976959    0.0905222504174252 C
   0.7553565212815897    0.7133043763415414    0.0980246722243052 C
   0.7445948701860954    0.5362553055766729    0.0979866613077052 C
   0.5080460085392209    0.9554632790984947    0.0966475808318464 C
   0.5001777621172540    0.4592567213117221    0.0953763223357604 C
  -0.0002434704001318    0.7903333492698452    0.0956646403274216 C
  -0.0153658791649234    0.4539134941941422    0.1045679074446114 N
   0.5152602161264591    0.7956135188900075    0.1043871954045817 N
   0.2503542337841680    0.6247177431635420    0.1563335254588471 Y
