Title
1.0
   8.5490480000000009    0.0000000000000000    0.0000000000000000
   0.0000000000000000    8.5490480000000009    0.0000000000000000
   0.0000000000000000    0.0000000000000000   20.0000000000000000
C N Zr
20 4 1
direct
   0.9098367736619288    0.2049084915027955    0.0954613404045322 C
   0.9080307147193486    0.5018095499932650    0.0953110646271661 C
   0.9098515749349663    0.7986865017342714    0.0954761655289797 C
   0.1961428790403493    0.0849380505168725    0.0954910368245344 C
   0.0761830511498849    0.2048878710392520    0.0954740952117943 C
   0.1961518931007621    0.9186055660846578    0.0954978994889264 C
   0.1547993221655423    0.6518844746904167    0.0953532412722793 C
   0.0780228977059226    0.5017895261012930    0.0953310057846395 C
   0.1547823960200718    0.3516783041312541    0.0953369825605236 C
   0.0761989419723052    0.7986626012186100    0.0954826851187121 C
   0.4929799932655217    0.0867901845031140    0.0953566590412632 C
   0.3429076559640626    0.1635620190713995    0.0953608893899895 C
   0.4929916236334849    0.9168069866213003    0.0953618610806576 C
   0.3429341423705064    0.8400063047574737    0.0953666327858191 C
   0.7898757505894942    0.0849730302687903    0.0954747326763926 C
   0.6430797835971850    0.1635787122032870    0.0953302336416865 C
   0.7898926660952083    0.9186396717930940    0.0954826006196748 C
   0.8312501556243044    0.6519103216281679    0.0953280409246645 C
   0.8312487631436334    0.3517008333377665    0.0953037729912433 C
   0.6430970058589118    0.8400401574066109    0.0953485622938441 C
   0.3172505486921041    0.3259976643409391    0.0952115022288734 N
   0.3172662621829962    0.6775552481416224    0.0952201519046516 N
   0.6688032781236347    0.3260186499881864    0.0951750901750163 N
   0.6687981185670148    0.6775820881096911    0.0951946033758594 N
   0.4930358078208487    0.5017771908158823    0.0949741500482544 Zr
