Title
1.0
   8.5490480000000009    0.0000000000000000    0.0000000000000000
   0.0000000000000000    8.5490480000000009    0.0000000000000000
   0.0000000000000000    0.0000000000000000   20.0000000000000000
C N Pt
20 4 1
direct
   0.9100141259391236    0.2068358852070539    0.0977629478930102 C
   0.9115748393651939    0.8011341237232144    0.0977723991678883 C
   0.1999520615302730    0.0825198310810805    0.0979769269961318 C
   0.0751018478472617    0.2036438459066143    0.0979397490402506 C
   0.1559098742625757    0.6503500654549099    0.0980001061625760 C
   0.0741279810103485    0.5024973401846395    0.0980192481352029 C
   0.1561665759044868    0.3559675944416154    0.0980438764013015 C
   0.0789279851622719    0.7998591799604758    0.0978740809839689 C
   0.3473413869867716    0.1639340127099835    0.0979964036560834 C
   0.4938636496521220    0.9153738450531466    0.0979729378464500 C
   0.3466986693936391    0.8342753902654922    0.0981007217429877 C
   0.7870564365592333    0.0847870646449270    0.0976501221974678 C
   0.6390684439819065    0.1645524254968743    0.0977699850841770 C
   0.7903419258829902    0.9189050393857031    0.0977324540222652 C
   0.8286830291864399    0.6519527040082279    0.0979582626661416 C
   0.8246506694240092    0.3571383919502024    0.0978588117506318 C
   0.6423585678366879    0.8358106189370218    0.0979294323788235 C
   0.3250708459725756    0.3340508845670193    0.0980648261088797 C
   0.3230724554682891    0.6700817310173268    0.0981263907993342 C
   0.6593304855981649    0.3342230176944048    0.0979057684334437 C
   0.4952406272453903    0.0838188015262329    0.0979620238134856 N
   0.9052150998341737    0.5040378786740429    0.0980056096531637 N
   0.6679751897273213    0.6735575828635543    0.0980847998168246 N
   0.1970276534478730    0.9170206552863875    0.0980402190174991 N
   0.4906415727808707    0.4984620899598627    0.0981568962319938 Pt
