Title
1.0
   4.9440799999999996    0.0000000000000000    0.0000000000000000
   0.0000000000000000   17.1295089999999988    0.0000000000000000
   0.0000000000000000    0.0000000000000000   20.0000000000000000
C N Sc
27 3 1
direct
   0.0029646755158785    0.1059323611403152    0.2938999177757931 C
   0.2524819478430653    0.1484478326896328    0.2952147976023374 C
   0.2534137902658720    0.2331046274544334    0.2983145678774206 C
   0.0010961192140756    0.2737803244954992    0.2982423859862546 C
  -0.0045278252246445    0.6009959445580155    0.3003725743463308 C
   0.2476395984230225    0.7268906244820810    0.2958437562874716 C
  -0.0001721725925801    0.8535541780839231    0.2932466213512571 C
   0.2497972541834272    0.8956519696124223    0.2932393013528812 C
   0.2507590480179734    0.9796146803638499    0.2931415419423784 C
  -0.0008860610322343    0.7695998225131255    0.2941965230089891 C
   0.5009244372534214    0.1057951960726968    0.2941925899433466 C
   0.7519631901776692    0.1476139966622019    0.2943325892792962 C
   0.7528523321770323    0.2310507802915754    0.2964148133067055 C
   0.5005498259565028    0.0218006217130965    0.2932937483014586 C
   0.7561476229820427    0.3932469470262211    0.3062158183980740 C
   0.7528406270255819    0.4794875898605219    0.3076141150664730 C
   0.5058694860761442    0.2745932081753253    0.3007598072634591 C
   0.4981208497576882    0.6009568922826382    0.3019472007646034 C
   0.7490024394010067    0.7275776956817457    0.2947333979450771 C
   0.4991218688304808    0.8533678501017836    0.2934264799783922 C
   0.7497690417952041    0.8956321152792506    0.2930003304920303 C
   0.7507396584844602    0.9797132933457482    0.2929345816766958 C
   0.4981476143332373    0.7693544603345686    0.2944966414524881 C
   0.7477832443850629    0.6438332376265687    0.2973531641736464 C
   0.2467826601739257    0.6429789950320871    0.2997910650814295 C
   0.0015505994033133    0.0218569469768989    0.2931096765939415 C
   0.5050293076764487    0.5189152144540753    0.3102953529414818 C
   0.9952632842898479    0.5203420579308041    0.3050546957606688 N
   0.5137393794698032    0.3544432858527400    0.3091183104909669 N
  -0.0046387036055126    0.3541016222402903    0.3012331611575583 N
   0.2358818593427860    0.4371076276658605    0.3500304724010449 Sc
