Title
1.0
   8.5490480000000009    0.0000000000000000    0.0000000000000000
   0.0000000000000000    8.5490480000000009    0.0000000000000000
   0.0000000000000000    0.0000000000000000   20.0000000000000000
C N Sc
21 3 1
direct
   0.9104255050241972    0.2039287507735535    0.0975034323688099 C
   0.9056140809749386    0.5026335726864637    0.0960852771948157 C
   0.9087591627255508    0.7987184002098353    0.0978375125884942 C
   0.1969029242592185    0.0838966845659871    0.0984929358217675 C
   0.0751419579644419    0.2056455983631538    0.0984796039409951 C
   0.1951885508971720    0.9191800746606797    0.0975554777714719 C
   0.1556178717885920    0.6522274128261286    0.0951924490988042 C
   0.0761729608477146    0.5029885855746103    0.0961179404135167 C
   0.1559497725290997    0.3553739663792825    0.0974469665480068 C
   0.0754983964606152    0.7985569304315993    0.0972148559651640 C
   0.4941878419101660    0.0849787803968063    0.0960827141966257 C
   0.3465759783624937    0.1647451237336131    0.0974202498955787 C
   0.4938369334763161    0.9143934454881857    0.0960966017412524 C
   0.3441485897342754    0.8364165369178607    0.0954364696932067 C
   0.7897741707787880    0.0842607771265058    0.0971479899191896 C
   0.6434344637503669    0.1644216723932302    0.0951087095223650 C
   0.7899240453579800    0.9175259343936054    0.0978179376367699 C
   0.8275273082393612    0.6511187103094660    0.0969549155954269 C
   0.8276740642905107    0.3529039927631226    0.0953691128041187 C
   0.6423206952014394    0.8362837464067997    0.0969491695532491 C
   0.3218988296768749    0.3306851858799010    0.0965859344923475 C
   0.3188602929513842    0.6765081368234894    0.0924817492668696 N
   0.6677733393325592    0.3276264330628648    0.0923965629550717 N
   0.6664199875638621    0.6751712752834335    0.0965335173760330 N
   0.4957842759020751    0.5046002725498339    0.0693969136400275 Sc
