Title
1.0
   9.8694509999999998    0.0000000000000000    0.0000000000000000
   0.0000000000000000    8.5490480000000009    0.0000000000000000
   0.0000000000000000    0.0000000000000000   20.0000000000000000
C N Hf
26 5 1
direct
   0.0564588954116429    0.0923553282866907    0.0859672287989188 C
   0.9308218806757729    0.1752608080095338    0.0874651932160448 C
   0.0567715623102391    0.9241304841434177    0.0868585008691715 C
   0.9297160555409407    0.3419414470859768    0.0904289681713993 C
   0.0560197328298036    0.5897769584794522    0.0879751163959967 C
   0.9319704744618629    0.6735456148250433    0.0902338846235670 C
   0.0568049404462058    0.4235888364155030    0.0893225532687001 C
   0.9316189392495065    0.8414501752761834    0.0884055802351097 C
   0.3052323959841281    0.0882839461355698    0.0860088154595745 C
   0.1824694035970373    0.1749830563470726    0.0865027555862053 C
   0.3069169105101316    0.9225231566173693    0.0895014244180120 C
   0.1826372768359728    0.3412510857347985    0.0893382068554043 C
   0.3054350394979250    0.5910653793547122    0.0979306531913062 C
   0.1813194955870345    0.6713180450543093    0.0900977472386369 C
   0.1814161077477737    0.8390523792051612    0.0894025805502536 C
   0.5551713732566150    0.0846875643339489    0.0939903530004347 C
   0.4301793110671115    0.1688572253091330    0.0904262037858890 C
   0.4310867520533825    0.3334286220469085    0.0963689692692886 C
   0.4283909723485759    0.8377871543904979    0.0979257448003816 C
   0.8068863193409034    0.0910559962701985    0.0873697780874952 C
   0.6803012348057192    0.1693028996024105    0.0930135734730642 C
   0.8062681723153716    0.9253434417952396    0.0881276641041695 C
   0.6780273311830384    0.3336075711716392    0.0998569081742327 C
   0.8077232708600511    0.5938847400178785    0.0983360071767421 C
   0.8011197538495030    0.4255618561421504    0.0965969033668199 C
   0.6836594571986689    0.8417286581823423    0.0952710525721453 C
   0.4204677412486837    0.6788162632545345    0.1153938969637435 N
   0.5515600025592594    0.4041892285484343    0.1152081277860660 N
   0.6917741974644247    0.6852483592783327    0.1125324118710148 N
   0.5558359149162960    0.9163512897953910    0.0958309355181320 N
   0.3104571837924153    0.4245189127235492    0.0943088554086494 N
   0.5651209010540100    0.5853495161666185    0.1796784057634470 Hf
