Title
1.0
   8.5490480000000009    0.0000000000000000    0.0000000000000000
   0.0000000000000000    8.5490480000000009    0.0000000000000000
   0.0000000000000000    0.0000000000000000   20.0000000000000000
C N Mn
22 2 1
direct
   0.9100575336842239    0.2065712721429253    0.0954369550940163 C
   0.9079834741168514    0.5019937820231001    0.0952973195056990 C
   0.9106674982341122    0.7982419513432855    0.0954432321025240 C
   0.1966043353039352    0.0841463433356815    0.0954527623503180 C
   0.0753788910684227    0.2053333362387283    0.0954349360006805 C
   0.1978436967135026    0.9188299602821959    0.0954830093137771 C
   0.1582410864403755    0.6475837616790804    0.0953860027321029 C
   0.0780688071938447    0.5015940641418447    0.0953227450399559 C
   0.1585371628956867    0.3534032587485482    0.0953065606493534 C
   0.0759856968989769    0.7970129058796350    0.0954648273015830 C
   0.4927967448017284    0.0868255743939645    0.0953399074984279 C
   0.3446515118409350    0.1673189988034448    0.0953266713390531 C
   0.4931876909983741    0.9167510023488353    0.0953487535769035 C
   0.3472430976114733    0.8365425484954239    0.0954014458913313 C
   0.7882041578128337    0.0847481639044881    0.0954519537977011 C
   0.6387642306421966    0.1670388898314119    0.0953487372574432 C
   0.7894516946275365    0.9194378117013458    0.0954464734799567 C
   0.8275074205431675    0.6501755597215166    0.0952957234562835 C
   0.8277659122426386    0.3560189658354995    0.0953258010479584 C
   0.6413679511653108    0.8362660610991767    0.0953118452249015 C
   0.3247731687555340    0.6700345833575025    0.0953473756082470 C
   0.6612386389992326    0.3335433456573606    0.0952706008615283 C
   0.3208393029948980    0.3295833669953657    0.0951756874833536 N
   0.6652233316332171    0.6739923164198112    0.0951590459051431 N
   0.4930289627809845    0.5018021756198411    0.0951266274817352 Mn
